$contrl scftyp=rohf icharg=+3 mult=4 runtyp=gradient
pp=read ispher=1 $end
$system mwords=1 $end
$guess guess=huckel $end
$basis basnam(1)=metal, ligO,ligO,ligO,ligO,ligO,ligO,
ligH,ligH,ligH,ligH,ligH,ligH,
ligH,ligH,ligH,ligH,ligH,ligH $end
$data
Cr+3(H2O)6 complex...SBKJC & 6-31G(d) geometry
Th
CHROMIUM
24.0
.0000000000 .0
.0000000000
OXYGEN
8.0
.0000000000 .0 2.0398916104
HYDROGEN
1.0
.7757887450 .0 2.6122732372
$end
!
$metal
sbkjc
$end
!
$ligO
n31 6
d 1 ; 1 0.8 1.0
$end
!
$ligH
n31 6
$end
$ecp
Cr-ecp SBKJC
O-ecp none
...snipped...
O-ecp none
H-ecp none
...snipped...
H-ecp none
$end
