 $CONTRL SCFTYP=MCSCF NOSYM=0 ISPHER=1 MULT=1
         UNITS=ANGS COORD=UNIQUE RUNTYP=ENERGY MPLEVL=2 $END
 $SYSTEM MEMORY=400000000 MEMDDI=1600 $END
 $BASIS  GBASIS=N31 NGAUSS=6 NDFUNC=1 $END
 $GUESS  GUESS=HUCKEL $END
 $MCSCF CISTEP=GUGA MAXIT=1000
 ACURCY=1.0D-5 FULLNR=.TRUE. $END
 $DRT NMCC=59 NDOC=6 NVAL=6 FORS=.TRUE. $END
 $MRMP MRPT=MCQDPT $END
 $MCQDPT NOSYM=1 NSTATE=1 MULT=1 ISTSYM=1 IFORB=1
         NMOFZC=21 NMODOC=38 NMOACT=12 EDSHFT(1)=0.02,0.1 $END
 $DATA  
 Das coord. From Energy + Gradient UHF Natural Orbitals                              
 C1
 C           6.0   0.4803168752   1.0331833044  -0.0622502075
 N           7.0   0.1930670045   0.2151351749   1.0047622379
 C           6.0   1.0666962472  -0.4494406790   1.8087646909
 S          16.0   3.0560583598   0.2434088376  -0.3007943778
 C           6.0   1.6459705424   1.1484199146  -0.7075681578
 N           7.0   0.8059048700  -0.9041650407   2.9203460052
 C           6.0   1.3680091711  -1.7193361205   3.9085589595
 C           6.0   0.4770441401  -2.0337135323   4.9712747214
 C           6.0   0.9103615214  -2.8651030005   5.9793728262
 C           6.0   2.2252476318  -3.3488759046   5.9450702316
 C           6.0   3.0795281732  -3.0317660123   4.9343606137
 C           6.0   2.6609431052  -2.1967188721   3.8821282911
 N           7.0   2.6945542241  -4.2072947476   7.0231205527
 O           8.0   1.8924329553  -4.4791441981   7.9256658243
 C           6.0  -0.9236642953  -1.4678035337   4.9850407578
 C           6.0   3.6349319029  -1.8471911730   2.7865381327
 O           8.0   3.8308083227  -4.6052850170   6.9915346744
 H           1.0   4.0779476086  -3.4205103925   4.9384754251
 H           1.0   4.5972348497  -2.3090523708   2.9726760562
 H           1.0   3.7871487927  -0.7759142854   2.7209323073
 H           1.0   3.2758101748  -2.1755158295   1.8185864261
 H           1.0  -1.4336930807  -1.7327310209   5.9034041836
 H           1.0  -0.9054403053  -0.3861906846   4.9130267147
 H           1.0  -1.5025278791  -1.8434260997   4.1472207564
 H           1.0  -0.7359233667   0.2491062288   1.3638306937
 H           1.0   1.6824782042   1.8560209334  -1.5172522927
 H           1.0  -0.3625540936   1.6184224312  -0.3812197433
 H           1.0   0.2617763450  -3.1428283083   6.7844516950
 $END      
