 $CONTRL SCFTYP=MCSCF NOSYM=0 ISPHER=1 MULT=1
         UNITS=ANGS COORD=UNIQUE RUNTYP=ENERGY MAXIT=100 MPLEVL=2 $END
 $SYSTEM MEMORY=200000000 MEMDDI=400 $END
 $BASIS  GBASIS=N31 NGAUSS=6 NDFUNC=1 $END
 $GUESS  GUESS=MOREAD NORB=264 $END
 $MCSCF CISTEP=GUGA MAXIT=100 
 ACURCY=1.0D-5 FULLNR=.TRUE. $END
 $GUGDIA NSTATE=5, ITERMX=100 $END 
 $GUGDM2 WSTATE(1)=1.0,1.0,1.0,1.0,1.0 $END
 $DRT NMCC=59 NDOC=6 NVAL=6 FORS=.TRUE. $END
 $MRMP MRPT=MCQDPT $END
 $MCQDPT NOSYM=1 NSTATE=5 MULT=1 ISTSYM=1 IFORB=1
         NMOFZC=21 NMODOC=38 NMOACT=12 EDSHFT(1)=0.02,0.1 
         KSTATE(1)=1,1,1,1,1, WSTATE(1)=1.0,1.0,1.0,1.0,1.0 $END
 $DATA  
 titulo
 C1
C           6.0   0.7001858479   1.2619679330   0.4425996276
C           6.0   0.0031237398   0.0512297151   0.6456173680
C           6.0   0.6764747753  -1.2012642834   0.5428272804
C           6.0   2.0321605199  -1.2095632850   0.1979274447
C           6.0   2.6918748227  -0.0112177498  -0.0240167001
C           6.0   2.0486546764   1.2183065831   0.1009531991
N           7.0  -1.3490745558   0.0865306669   1.0439999856
C           6.0  -2.2572975238   0.0214641257   0.1778876147
N           7.0  -2.1599719446  -0.0899510693  -1.1860657907
C           6.0  -3.3669261297  -0.1441188842  -1.8722156683
C           6.0  -4.4317299273  -0.0748868851  -1.0935078947
S          16.0  -3.9750061330   0.0661509436   0.6026163286
C           6.0  -0.0565817610  -2.4933775234   0.8187711298
N           7.0   4.0999610990  -0.0359941760  -0.3893672462
O           8.0   4.6565891478   1.0198010978  -0.5724004286
C           6.0  -0.0069849650   2.5869285181   0.6098609560
O           8.0   4.6401533765  -1.1106547623  -0.4958208934
H           1.0   2.5985974460   2.1230440826  -0.0606192330
H           1.0   0.6944659142   3.4091906083   0.5333879506
H           1.0  -0.4976347315   2.6402167742   1.5744678169
H           1.0  -0.7713150184   2.7304050924  -0.1477474036
H           1.0  -0.8036715176  -2.7012793125   0.0587361419
H           1.0   0.6333081642  -3.3287552099   0.8399607592
H           1.0  -0.5705039461  -2.4473251825   1.7714319796
H           1.0  -1.2733847291  -0.1325434227  -1.6354863884
H           1.0  -5.4569038619  -0.0970552619  -1.3945029469
H           1.0  -3.3498541258  -0.2350029521  -2.9388891768
H           1.0   2.5642141189  -2.1350132260   0.1098048835
$END
--- OPTIMIZED MCSCF MO-S --- GENERATED AT Mon Sep 26 21:55:13 2016
 Das coord. From Energy + Gradient UHF Natural Orbitals                         
E(MCSCF)=    -1133.5532515313, E(NUC)=     1275.8016169344
 $VEC   
 1  1-2.16284084E-06-2.15677540E-05 1.72801327E-06 2.56388606E-06 8.09907776E-07
 1  2 2.00218061E-04 8.76418949E-05-1.98953062E-04 3.63716336E-05-7.77287522E-06
 1  3 8.51915086E-06-7.46275638E-07 4.61505560E-06-1.02596735E-07-8.03129594E-06
 1  4-6.67289779E-06-1.19376536E-04 7.03976977E-05-1.80165252E-06-2.05454525E-06
 1  5-4.16152716E-04-1.58250755E-04-3.40709421E-07-1.45302511E-04-5.04010949E-06
 1  6-1.16471787E-05 1.66872882E-05 2.52693620E-06 3.58282795E-05 1.68235727E-06
 1  7-2.24181955E-06-2.25966774E-05 2.51812709E-06-2.42394151E-06 1.12758233E-06
 1  8 1.88741995E-04 8.37274391E-05 2.06952259E-04 1.77622248E-05-7.99156143E-06
 1  9 1.00669944E-05-2.07543293E-06-4.77004524E-06 1.05928637E-06 7.45442405E-06
 1 10 1.94026418E-06 1.66104319E-05-2.03732008E-06 2.27784252E-06-2.31852760E-06
 1 11-1.81281778E-04 5.52286122E-05-1.34706165E-04-1.46561888E-05 1.90831449E-07
 1 12-2.23293949E-06 2.04210804E-06 1.65304198E-06 2.06061107E-06 8.51849710E-07
 1 13-1.31203784E-06-5.12498535E-06-3.62668411E-06 1.75549274E-08-1.29998476E-06
 1 14 2.17905598E-04-6.80555709E-05-2.30408185E-06 2.73581124E-05 1.77061393E-06
 1 15-1.36688016E-07-1.63392591E-06-1.86787851E-08-1.26720859E-06-3.28302743E-08
 1 16 2.01965416E-06 1.72455430E-05-1.98767370E-06-2.34900651E-06-2.17625487E-06
 1 17-1.85479601E-04 6.51577867E-05 1.25845426E-04-2.80712758E-05-1.73148665E-07
 1 18-2.05988910E-06 2.23303777E-06-1.49177378E-06 2.41468044E-06-4.86862292E-07
 1 19-6.83799405E-06-4.16400534E-05-9.25971471E-05 1.51764933E-06 1.75118618E-05
 1 20 6.49685318E-04 4.27735427E-04-3.34709245E-05-3.74287887E-04-6.11117372E-06
 1 21-1.13096721E-06 7.24214093E-06-4.93176981E-07-6.59290098E-06 7.19050646E-07
 1 22-2.56892396E-05-8.20289260E-05 2.68945102E-05 3.18448682E-06 5.15045804E-05
 1 23-3.66837834E-04-1.30040630E-03 3.68233719E-05 3.34636020E-04 2.37692234E-04
 1 24-1.19150892E-04-1.18541343E-04-1.08341178E-05-1.03009834E-04 6.74969134E-07
 1 25-1.14084658E-05-6.18297498E-05-7.07725728E-05-9.82723719E-07-1.37160892E-05
 1 26 1.14469221E-03 2.05088308E-04 1.79119670E-05 2.49172109E-04-2.18814605E-05
 1 27 2.01397401E-06 1.98674865E-05 3.96330229E-06 4.68157387E-05 9.69888878E-07
 1 28 3.45722878E-05 3.01187941E-04 4.64378707E-05 8.17732708E-06 9.76719395E-05
 1 29-1.54532733E-03 9.01339100E-05-1.42221849E-04-1.68285256E-03-2.73481106E-05
 1 30 7.41683884E-05-4.68202778E-05-3.49719455E-07-1.03529752E-05-1.16434766E-05
 1 31-4.11501699E-05-1.63072884E-04-1.19505210E-05 1.68949147E-06 2.07159429E-05
 1 32 1.38611202E-03 1.36661641E-03 2.96492827E-05 4.01400193E-04-7.83216804E-05
 1 33-1.61582440E-04 2.39904121E-04 8.03166397E-06 9.91780939E-05 3.89442912E-05
 1 34 9.96666535E-01 1.23016502E-02 8.86878542E-05-1.20650982E-05-1.37465514E-04
 1 35-4.15780902E-03-3.30451439E-04 4.08577579E-05 4.63273167E-04 1.29282564E-03
 1 36-4.61249729E-05-2.86356172E-06-2.63443357E-05-3.21996504E-05 9.05540587E-05
 1 37-5.83544083E-05 1.52414629E-06 1.10431611E-05-1.46233081E-05-1.39454898E-06
 1 38-1.56862368E-05 5.90907701E-06-3.03135355E-06 4.73202850E-06 1.10074230E-04
 1 39 8.28803763E-06 5.92830505E-05-3.79974792E-05 4.35339210E-07-4.68934212E-07
 1 40 3.35950019E-08 3.58960490E-06 3.01824944E-06-5.35655676E-06 3.75738476E-07
 1 41 4.96056220E-06-6.51386826E-07 4.73517560E-08 8.23064165E-07-1.22255713E-06
 1 42 1.92399301E-05-3.87808382E-07-9.77393337E-06-1.34309593E-06 8.76477382E-07
 1 43 4.66618550E-07-3.33578394E-08 8.02232692E-07-4.66063373E-09 8.11762400E-08
 1 44 1.45123719E-06-1.42877937E-07-2.88963596E-07-1.66152726E-07-6.79070655E-06
 1 45-1.37009768E-06 4.96453733E-06 1.70137716E-06 4.44984527E-07-1.01147029E-06
 1 46 5.66485768E-07 3.15245414E-07-1.62922077E-07-4.39382338E-07-6.99760521E-07
 1 47-8.26384369E-06 4.03015582E-06 1.75475170E-06 5.49687384E-06 8.76088827E-05
 1 48 1.57081811E-05-5.17200794E-05-3.89977495E-05 4.57476725E-07 5.45068541E-07
 1 49-1.00254527E-06-2.95903243E-06 3.06578855E-06 5.06884704E-06 8.32286506E-08
 1 50 1.34797869E-06-3.77457648E-08 3.32943109E-07-1.97660354E-07-6.70708854E-06
 1 51-1.66241826E-06-5.13271741E-06 2.07525317E-06 5.05676341E-07-1.00055852E-06
 1 52 4.94882176E-07-2.79393148E-07-1.41944880E-07 5.47388717E-07-4.34128601E-06
 1 53-4.57462954E-05 1.79494935E-07 7.14107121E-06 3.47256500E-06 1.10990872E-05
 1 54-9.15362705E-06 1.06899604E-05-1.19946687E-05 1.08226373E-05 3.71783584E-07
 1 55 1.27957345E-05 2.83115496E-06-2.92190507E-06-7.56337879E-05-9.53388061E-05
 1 56 1.18453575E-04 4.28935319E-04-8.70181018E-05-6.35909103E-04-4.56132341E-06
 1 57-4.70942738E-05
 2  1-1.22256993E-05-1.01596385E-04-7.89295602E-05-2.81699134E-05 1.91293049E-05
 2  2 9.69705801E-04 2.80134456E-03 1.01910753E-03-7.13280301E-04 6.75231540E-05
 2  3-3.78760501E-05-2.96471039E-05-1.19092833E-05-3.20382168E-05 3.22195592E-06
 2  4-3.13588274E-06-3.80533040E-05 1.77803958E-05-1.10388568E-05 1.50943722E-06
 2  5 2.70721247E-04-6.95399025E-04 2.10392478E-03 9.66336353E-05-1.41764322E-05
 2  6 2.35884712E-05-9.41203902E-06 3.89992915E-05-5.37954859E-06-7.25844534E-06
 2  7-2.01122939E-05-1.28375263E-04 6.84831568E-06-3.59763958E-05 3.86043406E-06
 2  8 1.31306315E-03-3.76529305E-04 1.58608901E-03-1.56462293E-05 3.16452445E-05
 2  9 5.03370146E-06-3.66789460E-05-2.21551210E-05-1.98632885E-05 2.98753022E-06
 2 10 4.17191881E-07-3.70325824E-05-9.54243526E-05-4.20884873E-05 2.53082461E-05
 2 11-4.04570542E-03-1.50951156E-03-1.78941079E-03 4.92226062E-04-5.99511207E-05
 2 12 9.01476422E-05-3.01965215E-05-4.97695024E-05 1.05575667E-05 9.22395777E-06
 2 13 1.30249213E-05 5.22715106E-06-1.20358662E-04 1.62479797E-05 2.96629477E-05
 2 14-5.60031263E-04 1.42299397E-03-8.06992310E-03-7.22774631E-05 2.30854353E-06
 2 15 4.27607687E-05-4.50693122E-05-2.89939591E-04-4.23164143E-06 7.02338609E-05
 2 16-7.84145352E-06-1.55495411E-04-5.78666997E-05-9.35012552E-06 1.93165687E-05
 2 17 3.18831566E-03 3.59869279E-03-3.22162020E-03-8.39908438E-04-1.04323789E-04
 2 18 1.20859496E-04-1.65357063E-05-4.34387518E-05 3.07126312E-05 8.00314721E-06
 2 19-1.06308694E-06-2.29525404E-05-1.53071521E-05-5.73689630E-06 9.08374297E-06
 2 20-2.38937118E-04-1.48655569E-04-2.09453077E-04-8.66666184E-06-2.09565026E-06
 2 21 1.16615070E-05-9.56585675E-06-3.63901117E-05-5.05188625E-07 1.47858310E-05
 2 22 1.84197774E-06 1.18861271E-05 2.75524201E-06 2.54838394E-06 9.04616037E-08
 2 23-1.02559576E-04-1.01097290E-04 1.41586069E-05-4.88494315E-05-7.74432713E-06
 2 24 5.70644695E-06 2.03788018E-06-8.04767316E-06 2.95594420E-06 6.59953291E-06
 2 25 4.62353063E-08-1.04138020E-06-4.62839543E-07 5.03885977E-06 3.12574994E-06
 2 26 1.07119067E-05 1.51665068E-05-2.47209735E-05-1.77779052E-05-1.26593298E-06
 2 27 2.20265349E-06-9.36720515E-07-2.80381767E-06 2.28517084E-06-2.92370581E-06
 2 28 4.25037411E-07 2.97214356E-06-1.10328073E-06-8.63196206E-07 7.01029054E-07
 2 29-1.98832561E-06-7.47762246E-06 1.05222444E-05-3.40817314E-08-1.34204977E-06
 2 30 1.21511139E-06 1.26938380E-07 7.21143030E-07-1.94052165E-07 9.39427817E-07
 2 31 2.88176965E-07 2.40960655E-06 1.24614182E-06 1.47466695E-06 2.01259074E-07
 2 32-5.19529139E-06-1.45858556E-05-8.08090399E-06 3.04381632E-07-9.67985337E-07
 2 33 9.39124514E-07 2.88608231E-08-8.40637075E-07-4.24698932E-07 8.72494875E-08
 2 34-1.27298765E-07-3.79033974E-07 6.54453285E-07 7.73975712E-07-4.69414747E-07
 2 35-5.24520545E-06-5.82667143E-06-4.44958215E-06 3.22150709E-06-1.75819214E-05
 2 36-5.87883734E-06 9.59333630E-06 5.09450761E-06-2.28896733E-07 4.93899439E-07
 2 37-2.65002706E-07 6.18396739E-08 1.85623045E-06 3.76673954E-07-4.60070338E-06
 2 38-3.44287386E-05 2.72231574E-05 1.30062875E-06-7.83579519E-06 5.21494167E-04
 2 39 9.48045229E-05 1.61594443E-04-2.47099537E-05 2.20730644E-06-2.72296651E-06
 2 40 5.15660074E-07 8.51861844E-06-2.57564650E-06-7.61505558E-07 1.13314778E-04
 2 41 9.34118927E-06-1.33047029E-04-1.21022305E-04 3.65896573E-05 4.69939063E-03
 2 42 3.27772712E-03 1.08261397E-02-1.23873920E-03 1.92808111E-04-3.73697938E-04
 2 43 1.80889826E-04-4.06603528E-04 1.23050375E-05 1.27821516E-04 9.85951376E-01
 2 44 2.31045957E-02-1.10120380E-03-1.88324278E-03 3.51774135E-04-1.65961445E-02
 2 45 3.40900685E-03 5.40916243E-03-1.08781433E-03 1.07973070E-04-2.43617640E-04
 2 46 1.35644570E-04-4.32834793E-04 2.72283583E-05 1.29563291E-04-1.01852475E-05
 2 47-9.97021887E-05-4.67175280E-05 1.86186865E-06 1.89769358E-05 3.11564703E-04
 2 48-1.32652181E-04-3.98565603E-04-6.59444402E-06-2.99794661E-05 5.13950543E-05
 2 49-2.14155882E-05 1.62489151E-05 3.11357226E-06-5.44538565E-06-1.40397111E-01
 2 50-3.77467917E-03 1.05116943E-04-3.83218763E-04-1.64995357E-05 5.53134871E-03
 2 51-2.05469098E-03 1.36769972E-03 5.01661638E-04 3.26300277E-04-1.80772521E-04
 2 52-1.45527756E-04-3.68571796E-04-1.41945621E-04 9.77007626E-05-1.92160456E-04
 2 53 4.60948099E-04-3.78430488E-05 2.62489846E-04-3.21092857E-06-1.68547529E-05
 2 54-6.50612242E-06-5.08663314E-05-1.91523369E-05-3.03298234E-06-2.34642109E-06
 2 55-2.33934666E-05-1.93932890E-05-2.48626050E-05 2.25155114E-07-2.17224095E-05
 2 56-6.50536478E-07-7.60763586E-06 2.33558476E-07 1.24905457E-06 5.44208318E-05
 2 57-1.58123381E-04
 3  1-2.43977106E-05-1.61604941E-04-1.47054733E-05 2.89904520E-05 5.95536035E-06
 3  2 1.67183988E-03 3.53460257E-04-1.35999064E-03-7.44932460E-05 5.31811309E-05
 3  3-7.08451264E-06-4.60966182E-05 1.74489474E-05-3.20013442E-05-6.07091604E-06
 3  4-3.74389521E-06-4.97447388E-05 2.15838496E-05 8.74355352E-06 2.55429032E-06
 3  5 2.03220974E-04-9.63703378E-04-1.52771749E-03 2.93962061E-04-2.01402575E-05
 3  6 3.25738461E-05-1.24335887E-05-2.86755066E-05-3.28518010E-06 2.67427138E-06
 3  7-1.84461509E-05-1.42881420E-04-8.12818678E-05 2.24616187E-05 1.81793096E-05
 3  8 1.35356938E-03 2.67799945E-03-6.80501446E-04-6.21762872E-04 7.82236313E-05
 3  9-3.72782517E-05-4.09453796E-05-4.19437102E-07-3.91073951E-05-8.63388466E-07
 3 10-8.25584382E-06-1.72906016E-04-8.66474832E-05 1.28470525E-06 2.81275773E-05
 3 11 2.35974661E-03 3.30410482E-03 2.69946799E-03-9.93863202E-04-1.21737568E-04
 3 12 1.45548074E-04-2.38105053E-05 3.74343598E-05 2.99501252E-05-1.97577360E-05
 3 13 1.76428003E-05 1.14266574E-05-1.59283962E-04-7.78226302E-06 4.20885474E-05
 3 14-8.45891133E-04 2.08350463E-03 6.03029034E-03-7.66210002E-04 1.34550608E-05
 3 15 3.78043536E-05-5.12594143E-05 2.16894480E-04-2.79380698E-05-5.81965551E-05
 3 16-1.22228980E-06-8.04864138E-05-1.14194485E-04 4.59677618E-05 2.77948562E-05
 3 17-3.22122240E-03-5.16127469E-04 9.93803798E-04 1.14403593E-04-9.10338650E-05
 3 18 1.23277074E-04-3.22432088E-05 4.47325108E-05 1.56723005E-05-1.81105259E-05
 3 19-1.05366944E-06-2.59813595E-05-2.02507213E-05 6.03340824E-06 1.09380337E-05
 3 20-3.21252220E-04-1.66434190E-04 1.57160890E-04-2.19213466E-05-7.97571132E-07
 3 21 9.94458908E-06-9.14701795E-06 2.84721965E-05-5.27756850E-06-1.22284300E-05
 3 22 2.55194053E-06 1.60464630E-05 3.28725367E-06-1.60851602E-06 1.03120664E-06
 3 23-1.03763107E-04-1.20407013E-04-1.73022257E-05-4.82463853E-05-1.09538490E-05
 3 24 5.64471620E-06 5.30913285E-06 6.24945735E-06 2.93433753E-06-4.94457204E-06
 3 25 1.95097195E-07-5.40547890E-07-1.60633425E-07-2.53376993E-06 5.07831144E-06
 3 26 1.15138321E-05 1.19119992E-05 1.22611679E-05-3.22365981E-05-1.90582119E-06
 3 27 4.35154517E-06-2.44572398E-06 1.87919636E-06 1.75603489E-06 1.17990215E-06
 3 28 4.78271717E-07 3.24569364E-06-1.43408115E-06 5.58567162E-07 3.98637975E-07
 3 29-7.36884719E-06-1.32197950E-05-6.40727565E-06 2.40690002E-06-1.70729337E-06
 3 30 1.23618693E-06 4.71106435E-07-4.40208949E-07-6.42775428E-08-7.14164551E-07
 3 31 3.20101038E-07 2.63574546E-06 1.35866027E-06-1.04367433E-06 4.81177821E-07
 3 32-6.66366162E-06-1.63952105E-05 5.75853079E-06 2.48306173E-07-1.19147538E-06
 3 33 1.09277432E-06 9.87010555E-08 5.35135738E-07-6.81140803E-07-1.72388303E-07
 3 34-1.48337453E-07-4.10149930E-07 8.22453410E-07-6.27215603E-07-4.64108581E-07
 3 35-6.07369143E-06-7.49124843E-06 3.73611160E-06 3.29826712E-06-2.60051549E-05
 3 36-9.89385543E-06-5.62690553E-06 8.07258728E-06-5.61132808E-07 6.29492210E-07
 3 37-6.83594016E-08 2.96784285E-07 2.09511782E-06-5.00509202E-07-1.18286465E-05
 3 38-1.12796039E-04-4.05833918E-05 1.01331910E-06 1.89823900E-05 4.65080205E-04
 3 39-9.70460586E-05 4.48867022E-04-5.97635980E-05-3.02125959E-05 5.26108155E-05
 3 40-2.23982196E-05-1.20347150E-05 3.91248642E-06-2.18674360E-06 1.51407847E-04
 3 41 1.66127242E-05-1.75904881E-04 9.59533065E-05 3.89688664E-05 6.22959978E-03
 3 42 4.20955729E-03-8.26685689E-03-8.28503353E-04 2.67596736E-04-5.23280681E-04
 3 43 2.55683945E-04 2.92975773E-04-1.56993357E-05-4.57633309E-05 1.40352466E-01
 3 44 2.78334773E-03-2.04787272E-04-1.52953319E-04 5.68990499E-05 9.50390622E-04
 3 45-1.17578260E-03 2.17999857E-04 3.04738611E-04 3.81253310E-04-2.81085701E-04
 3 46-1.00167609E-04 2.38053092E-04-1.68091983E-04-5.68234061E-05-7.55755007E-06
 3 47-6.24098327E-05 1.38391394E-05-2.73530954E-06-2.60119291E-06 6.24746955E-04
 3 48 6.06801091E-05-2.80467663E-04-1.41940333E-05-6.60966832E-06 1.25474220E-05
 3 49-5.93775371E-06-4.03749176E-06-7.51186024E-07-2.00726811E-07 9.85945089E-01
 3 50 2.29642721E-02-1.08493738E-03 1.88914162E-03 2.19953398E-04-1.56886452E-02
 3 51 2.86333734E-03-5.36402497E-03-5.82090594E-04 2.20165925E-04-3.33692936E-04
 3 52 1.13527011E-04 3.38009153E-04-4.61305037E-05-7.28045940E-05 1.77679356E-06
 3 53-3.03870581E-05-1.36262018E-05 4.80559143E-05-1.98809342E-05-2.97536193E-05
 3 54-2.15962228E-05-1.61039358E-05-1.30029017E-05-5.50521163E-05-4.02998705E-05
 3 55 2.59563406E-04-7.93070387E-06-1.99017454E-05-2.81676210E-07-2.42528188E-05
 3 56-5.49352923E-07-8.77270588E-06 6.98016310E-07 2.51079777E-06-1.85256769E-04
 3 57 4.38305100E-04
 4  1-2.80747588E-06-7.41247396E-05-1.14221622E-04 1.14858277E-04 2.52626236E-05
 4  2-2.77807532E-03-7.47596627E-04-5.08545062E-04 2.05676734E-04 2.13328796E-05
 4  3-1.37055064E-06-1.99623289E-05 3.26865672E-05-1.26406508E-05-1.14007633E-05
 4  4-5.26932883E-06-1.19041619E-04-1.02517451E-04 1.89573863E-06 1.91276149E-05
 4  5-5.08969643E-04 1.09860812E-03-2.26030451E-05-3.07739495E-04-5.11185615E-05
 4  6 5.40966681E-05-2.97810661E-06 3.67016972E-06 2.65582104E-05-3.48990713E-06
 4  7-2.97184979E-06-7.45589093E-05-1.18160121E-04-1.09233146E-04 3.48405791E-05
 4  8-2.73686390E-03-7.20866864E-04 5.48290094E-04 1.56477864E-04 1.96722431E-05
 4  9 1.48498985E-06-2.11572330E-05-3.35417593E-05-9.58099344E-06 9.71468612E-06
 4 10-3.60486480E-05-3.33825518E-04-2.81139942E-05 1.63818974E-05 7.09988831E-06
 4 11 3.79416929E-03-2.52663914E-03 2.40000234E-03 5.41270795E-04-6.93551911E-05
 4 12 1.79987219E-04-1.10632028E-04-1.09243649E-04-8.26255777E-06 1.57148095E-05
 4 13 2.92996797E-05 3.76359583E-05-1.20868850E-04 2.06161699E-06 2.80660047E-05
 4 14 4.28859116E-03 1.07603679E-02-1.62183350E-04-2.78337095E-03 1.68093107E-05
 4 15 2.68930813E-05-4.37023919E-05-2.31973984E-06-1.87782754E-05-2.83560879E-06
 4 16-3.59062077E-05-3.33364297E-04-2.84068473E-05-1.33967461E-05 9.04918687E-06
 4 17 3.76185959E-03-2.58241354E-03-2.27330305E-03 7.31658526E-04-6.62392910E-05
 4 18 1.71899878E-04-1.05660587E-04 1.12826509E-04-1.72898983E-05-4.21895219E-05
 4 19-1.30238269E-05-8.99202675E-05-1.36169261E-05 1.77312349E-07-4.40797695E-06
 4 20 6.98653991E-04 6.00071483E-04-1.14177993E-05-7.42319011E-05 3.59315243E-05
 4 21-2.94488597E-05-6.48266458E-06-2.77995814E-06-2.94161354E-05 1.81131144E-06
 4 22-9.57570754E-07-1.20883634E-05-9.53691698E-06-5.08032609E-10 6.81953878E-06
 4 23 1.04532320E-04 6.90084891E-05 2.43143562E-05 2.63327501E-04 4.13325050E-06
 4 24-3.92584022E-06-2.07410285E-07 9.77535189E-07 8.43055863E-06 3.20740086E-07
 4 25-5.02537461E-06-2.93460409E-05-1.30677208E-05-4.02173338E-07-4.45789930E-06
 4 26 1.51717181E-04 8.98347107E-05 8.18873126E-06 1.10128980E-04-1.76309508E-06
 4 27-5.63099588E-06 7.39409096E-06-5.12958298E-07-6.43235100E-06 1.09109378E-06
 4 28-1.34769337E-06-8.20588942E-06 4.69055277E-06 4.66684544E-08-5.00456942E-07
 4 29 7.99882849E-05 4.64250881E-05 3.23956523E-06 4.26205578E-05 3.47808332E-06
 4 30-5.14178522E-06 1.66370190E-06 2.55322809E-07 3.08726039E-06 6.03776070E-07
 4 31-1.29308687E-06-1.23027966E-05-3.03746549E-06-6.57570168E-08-9.62170645E-07
 4 32 2.11841035E-05 1.61480619E-05 6.70600923E-07 6.09371990E-06 1.95595426E-06
 4 33-3.03477321E-06 1.07881895E-06 8.65392791E-08 1.36043653E-06 4.03581309E-07
 4 34-3.56014384E-07-8.54549010E-07 1.05465736E-06 1.64137397E-07 1.99246272E-06
 4 35-1.40895740E-05-9.67437264E-06-9.47640404E-07-1.24977098E-05 4.20854901E-07
 4 36 1.39617884E-05-2.66884734E-07 9.27542636E-06 9.67231391E-07-1.67895297E-06
 4 37 7.11721579E-07-7.78173186E-07-6.02356789E-06 3.44475914E-07-1.91389654E-05
 4 38-1.44950453E-04 1.40164551E-05 2.84245243E-05-2.66912125E-06 9.20499000E-04
 4 39 3.38908266E-04 2.73595681E-04-1.20548715E-04 9.83834329E-06 1.22001539E-05
 4 40-2.20384972E-05 3.51877886E-05-9.28440815E-06-1.40189883E-05 9.96131130E-01
 4 41 2.43601665E-02 5.81042347E-04-8.56903368E-06-1.64461717E-04-1.31718119E-02
 4 42 7.16271893E-03-1.47339202E-04-1.86232566E-03-4.01987140E-04 9.53366736E-04
 4 43-5.51379596E-04 9.18264214E-06-5.21795367E-05-6.19012847E-05-1.21487959E-04
 4 44 3.58355311E-04 1.30569471E-04 1.97722158E-04-4.39774358E-05-1.60582727E-03
 4 45-8.54768206E-05 1.52763164E-03-3.66412945E-05 2.12298113E-04-8.15620703E-04
 4 46 6.03322590E-04-5.60424783E-04 1.50736038E-04 2.07374277E-04-1.89997019E-05
 4 47-1.42948208E-04 1.32749491E-05-2.92601361E-05-1.65560126E-07 9.11890985E-04
 4 48 3.32630708E-04-2.86016036E-04-9.77728868E-05 8.39228690E-06 1.53781554E-05
 4 49-2.37704423E-05-3.55200355E-05-6.54129906E-06 1.03852732E-05-1.21298239E-04
 4 50 3.60715396E-04 1.27665032E-04-2.02985764E-04-3.02615657E-05-1.63356999E-03
 4 51-1.02700845E-04-1.53308165E-03 7.28989292E-05 2.27322442E-04-8.49185848E-04
 4 52 6.21863407E-04 5.51604325E-04 1.07910667E-04-8.94364464E-05 1.23930246E-04
 4 53 9.70326388E-04-4.59577345E-05-8.31050188E-05-2.88010141E-05 1.45595803E-05
 4 54-3.33684418E-05-8.79727050E-06-3.39953422E-05-1.05333105E-05-4.61656390E-05
 4 55-8.16547519E-05-2.88833807E-05 1.40037746E-05-1.21165985E-05-3.42016671E-05
 4 56-1.45665405E-06 1.25908034E-05-1.83743799E-06 1.58015292E-05 1.23196623E-04
 4 57 9.76124009E-04
 5  1 2.09250025E-06 5.71190610E-05-4.25317186E-05 1.05176780E-05-8.18049846E-06
 5  2 7.12974577E-04 9.67854933E-04-1.11578447E-03-2.58988336E-04-1.39326954E-05
 5  3 2.25538351E-05-8.62113971E-06-1.62243253E-05-2.15011190E-06 1.48131549E-05
 5  4 7.48904807E-06 1.10227658E-04 4.08508634E-05 1.96779975E-06 1.46893777E-05
 5  5 1.21312878E-03-3.10508983E-03 8.50872171E-05 1.13943632E-03 5.77278496E-05
 5  6-9.73471833E-06-4.79931313E-05-9.32387428E-06-1.01554779E-04-5.29795104E-07
 5  7 4.08259111E-06 7.55866304E-05-4.09009982E-05-1.05006137E-05-7.45087918E-06
 5  8 6.23814261E-04 9.30783319E-04 1.04073098E-03-3.29227906E-04-1.71824178E-05
 5  9 2.09177389E-05-3.73532108E-06 1.87165998E-05-3.55251508E-06-1.65713546E-05
 5 10-2.78564787E-06-3.53851918E-05 3.04324977E-05-1.92207032E-05-2.15477577E-06
 5 11-7.73204103E-04 2.59727855E-04-2.14948725E-04-6.48672357E-05 3.10395321E-06
 5 12 5.94694038E-06-9.05089360E-06 5.01836713E-06-2.48921176E-06-6.06633707E-06
 5 13-2.74753159E-06-4.06024561E-05 1.75301600E-05 2.39356595E-07-1.57230625E-07
 5 14 2.70721435E-04-4.25546355E-04 1.93661402E-05 1.00042368E-04-1.07768472E-05
 5 15 1.27926473E-05-2.01580011E-06 6.61652902E-08 4.21673902E-06-5.43916311E-07
 5 16-2.12284387E-06-3.17886397E-05 3.26746435E-05 1.80917734E-05-3.56382770E-06
 5 17-8.58163287E-04 2.91591153E-04 2.23305005E-04-9.05109164E-05 1.37001688E-06
 5 18 7.31337356E-06-8.68339043E-06-4.74395515E-06-1.12426530E-06 4.94317783E-06
 5 19-2.12104691E-04-5.75727238E-05 1.55497619E-04 4.44203449E-06 5.35533816E-05
 5 20 1.13029786E-03-3.73717301E-03 2.84054131E-05 1.12590014E-04 1.48916098E-04
 5 21-1.43342155E-05-1.34581883E-04 8.55747598E-06 1.13637089E-04-1.08069246E-05
 5 22 6.72760016E-05-3.04513809E-04 4.01388406E-06-8.53918970E-06-1.02700817E-04
 5 23 4.39316546E-03-1.73670048E-03-6.35292612E-04-7.91785980E-03 2.06810757E-04
 5 24 1.72889378E-04-3.79700136E-04-2.78467023E-07 2.78691745E-06-5.11629136E-05
 5 25 9.96063256E-01 2.51627722E-02-4.35519827E-04 2.40522367E-05 3.56731958E-04
 5 26-2.01900871E-02 3.82767685E-03-2.97540208E-04-3.58570801E-03-3.42211446E-05
 5 27 1.55235324E-04-1.21014179E-04-3.89620722E-06-3.68590561E-05-2.54873304E-05
 5 28 3.80596706E-05-3.33114141E-04 8.57156005E-05 4.78890190E-06 7.00565739E-05
 5 29 8.17594631E-03 7.87641194E-04 4.04079932E-04 4.82089837E-03-2.60178589E-04
 5 30 7.51963061E-05 1.84982283E-04-2.68766211E-05-3.24374367E-04 1.19443669E-05
 5 31 2.03523699E-05 1.06955134E-04-9.90746810E-05 1.67414606E-05 2.00144588E-04
 5 32-3.86559877E-03-3.30121931E-03 1.15575420E-05-1.77831366E-05-5.69134843E-05
 5 33-2.69137548E-05 8.38272391E-05 1.07890163E-05 1.20702902E-04 1.07926657E-05
 5 34 6.51830839E-08-2.20159793E-06 3.34223538E-05-8.08817196E-07-1.12340731E-05
 5 35-1.81402528E-05-2.82675716E-04 4.80218673E-06 6.14907069E-05 2.48624006E-04
 5 36 4.92012591E-04 3.59098620E-05 4.53860937E-04-2.05407362E-05-4.06129716E-05
 5 37 6.11537078E-05 2.10062545E-05 2.60267733E-04 8.21593262E-06-5.00221920E-06
 5 38-1.59626362E-05 3.42792178E-06 3.68611411E-05-1.82488427E-05 7.54114125E-04
 5 39 1.95979933E-04 2.67191248E-04-1.94223482E-05-4.81859212E-06 8.69515539E-06
 5 40-3.87656326E-06 7.01574465E-06-4.49000639E-06 1.41645188E-06-9.74037553E-07
 5 41-3.76823494E-05 4.92376740E-06 1.68727378E-07-3.22785421E-06 2.63263194E-04
 5 42-1.33754742E-04-7.76483517E-06 4.44339730E-05 4.22079127E-06 1.97569999E-06
 5 43-6.19649126E-06-5.54960366E-07-3.35831242E-06-2.14540931E-07-6.37298683E-09
 5 44-2.49411760E-06-3.64566288E-07 2.63152865E-06 1.56170834E-07 5.55336645E-06
 5 45 1.70220727E-05-7.65275787E-06-6.72105584E-06-2.64034222E-06 2.21048746E-06
 5 46 4.29854765E-07-3.56139577E-06 1.34453588E-06 1.82852230E-06-7.74868061E-06
 5 47-4.67059210E-05 9.92755062E-06-3.95069312E-05-1.28869771E-05 8.67401486E-04
 5 48 1.41896232E-04-2.84410591E-04-1.08793816E-05-6.08903129E-06 8.36354249E-06
 5 49-2.27451119E-06-4.93242615E-06-3.31757638E-06-1.74175853E-06 7.40006487E-08
 5 50-2.03529682E-06 1.83956758E-07-2.63766999E-06 2.49631896E-07-5.47601562E-06
 5 51 1.84717218E-05 2.28651944E-06-7.60779461E-06-2.12749040E-06 1.57321129E-06
 5 52 5.54279109E-07 4.34643162E-06 9.14050266E-07-2.13016087E-06-4.21994633E-06
 5 53-3.96589358E-05-2.69703044E-05-2.15085769E-05-3.01111610E-05-1.99239514E-05
 5 54-1.67906443E-05-5.95532293E-05-2.64631915E-05 1.69672009E-05-2.45307870E-05
 5 55-2.96429153E-05-2.15779341E-05 8.15378256E-07-3.19573241E-04 8.88466471E-04
 5 56-1.86630879E-04-8.83228133E-04-2.72663512E-05 1.21530611E-03-4.08889713E-06
 5 57-3.49110982E-05
 6  1-1.62137668E-05-2.31182229E-04 6.33222778E-05 1.38632791E-04-5.20165364E-05
 6  2 2.63678601E-03 1.43726657E-03-4.83525677E-03 6.54967620E-05-1.02691881E-04
 6  3 1.71039109E-04-6.83472274E-05-6.33118364E-05-8.22223246E-06-6.57860413E-06
 6  4 1.46545617E-04 8.08222169E-04 1.46923316E-05-3.58950258E-05-6.02728845E-05
 6  5-9.03696186E-04-9.30442250E-03-6.56458855E-05 1.62834711E-03-2.67250215E-04
 6  6 2.62482655E-04 4.76755984E-06 1.25057324E-05 3.03925489E-04-2.23699293E-05
 6  7-2.68912667E-05-1.90169036E-04 3.67972192E-05-9.92583630E-05-4.24377421E-05
 6  8 2.37313276E-03 1.57430260E-03 4.50411054E-03-3.17128661E-04-1.06354803E-04
 6  9 1.68236990E-04-6.18821868E-05 7.51536299E-05-1.31579766E-05-1.69738198E-05
 6 10-1.10787991E-05-1.30195029E-04 1.00171448E-04-2.53011837E-05-2.31602180E-05
 6 11-1.50978385E-03 7.04647815E-05-1.33860187E-03-7.55372739E-05 4.41450195E-05
 6 12-1.39065772E-06-4.27543618E-05 4.34947505E-05-1.47440540E-05-1.82032344E-05
 6 13-1.25094394E-05-1.20354060E-04 5.37899200E-06 6.39299252E-07-9.00518667E-06
 6 14 2.24016441E-03-7.18127585E-04 1.34410934E-04 2.67918230E-04-6.98789647E-06
 6 15 2.37690796E-05-1.67811831E-05-1.63434062E-06-3.19045158E-06-1.68233628E-06
 6 16-1.18801474E-05-1.22506737E-04 9.75483307E-05 1.95064785E-05-2.32445419E-05
 6 17-1.65373944E-03 2.42420580E-05 1.49901053E-03-1.62442171E-04 4.20234734E-05
 6 18 1.57650147E-06-4.35999748E-05-4.65263176E-05-1.07697320E-05 1.44397911E-05
 6 19 9.96161348E-01 2.54552952E-02 1.05463868E-04-1.79482755E-04-2.33206452E-03
 6 20-2.33518260E-02-1.50709650E-03 4.91602307E-04 5.94729191E-03 7.46481810E-05
 6 21-8.19883406E-05 7.34015960E-06 3.36610312E-05 3.85386868E-04 6.61088050E-06
 6 22 1.44095261E-04-2.65044557E-04-3.66537226E-04-3.47831306E-05-5.11172402E-04
 6 23 8.47134348E-03 5.95866647E-03 2.38740303E-04 3.19946876E-03-6.92986227E-05
 6 24 3.66176793E-04-2.96878170E-04-5.19121080E-05-7.09038888E-04-5.78110994E-05
 6 25 2.16141023E-04-7.84041242E-05 9.14107468E-05-5.52550803E-07 4.06308651E-06
 6 26 3.84779830E-04-2.23439788E-03-7.00639104E-05-9.13898876E-04 1.14123904E-04
 6 27-6.63452339E-05-4.77786696E-05-1.25733587E-05-1.52651195E-04 2.79023297E-06
 6 28-1.41197623E-05-2.18062499E-04-7.78157724E-05-1.04459525E-05-1.33623840E-04
 6 29-2.19157756E-03-3.64781192E-04-4.63975032E-05-5.41429576E-04-1.70170918E-05
 6 30 1.76781568E-05-6.61064983E-07-4.79623271E-07-4.75415415E-06-2.17860514E-06
 6 31-3.04325780E-05-2.62561155E-04-9.84639154E-05-4.63905468E-06-6.43815458E-05
 6 32 9.69468360E-04 1.61637952E-03 1.27669915E-05 2.07668433E-04 6.25617641E-05
 6 33-6.28441040E-05 2.82339825E-07-1.76318910E-06-1.26041001E-05 5.82451039E-06
 6 34 4.63467148E-06 5.17760808E-05-1.13549014E-05 2.25684338E-06 1.81010170E-05
 6 35 3.05660811E-04 1.77778255E-04-1.09603932E-05-9.78037369E-05 2.07349868E-05
 6 36-2.20175088E-04-2.25876572E-05-2.54211703E-04-8.52947501E-05 3.77332568E-05
 6 37 4.75614934E-05-1.28844894E-05-1.67407832E-04 1.76002496E-06-3.30138996E-05
 6 38-3.84391896E-04 1.33399836E-04-2.93612319E-05-2.74405730E-06 3.09858636E-03
 6 39 3.68723281E-04 9.69772027E-04-4.58286717E-04 1.98908407E-05-4.29114238E-05
 6 40 2.30205831E-05 6.67849448E-05-2.54452507E-05-1.54095115E-05 1.93327752E-06
 6 41-3.54197938E-05 8.05965263E-06 8.25659037E-07-1.31542522E-06 2.07142035E-06
 6 42-6.75983823E-05-4.55500529E-05-2.65376373E-06 7.29908074E-06-6.17167115E-06
 6 43-1.12740959E-06-3.12601701E-07-2.93932195E-07 2.05333328E-07-1.62825197E-06
 6 44-3.56822932E-05 6.92495814E-06-4.07570021E-06-3.78735477E-06 1.29218788E-04
 6 45-4.76013317E-05-2.46867733E-05 2.01151814E-05 3.91472371E-06 1.87874913E-06
 6 46-5.79347284E-06 2.54594085E-06-4.30672029E-06-2.19740015E-06-4.24475211E-05
 6 47-4.47613341E-04 1.59100354E-04 2.64790916E-05-1.08171897E-05 3.38478902E-03
 6 48 2.78177641E-04-1.12634480E-03-3.56689619E-04 2.00859413E-05-4.04332673E-05
 6 49 2.03473259E-05-7.31368484E-05-1.58437793E-05 2.39550867E-05-1.23856495E-06
 6 50-3.11392827E-05 7.61750346E-06 2.94276995E-06-4.39703367E-06 7.86131891E-05
 6 51-3.52858590E-05 1.42985055E-05 1.61662316E-05 3.91552747E-06 2.21825257E-06
 6 52-6.13378005E-06-1.60356131E-06-4.35661740E-06 1.24070692E-06-5.65361751E-05
 6 53-3.43186720E-04-7.60713744E-05 8.20014200E-05-1.70099242E-04-8.99089431E-05
 6 54-1.17115142E-04-5.63114085E-04-9.44038747E-05-5.10453486E-04-7.13599523E-05
 6 55 4.84023148E-05-1.58858960E-04-8.67838020E-06 2.26951178E-04 1.63947846E-04
 6 56 1.00907406E-04 6.70091484E-04 3.73111535E-05 5.40417456E-05-4.91260446E-05
 6 57-3.03977048E-04
 7  1-5.37244611E-06-1.36100317E-06 3.99042648E-06 2.24229898E-05-5.03364636E-06