! Bench 5
!
! This is an MCSCF energy plus gradient calculation on
! the ring opening of singlet cyclopropylidene to allene.
!
! There are 53 AOs, and 20 CSFs.
!                                                                              
! The FINAL energy is -115.7534036778 after 12 iterations.
! The Cartesian RMS gradient is 0.016945336.
!                                                                              
 $CONTRL SCFTYP=MCSCF  RUNTYP=GRADIENT   MULT=1  UNITS=BOHR                     
         NZVAR=15 $END                                                          
 $SYSTEM TIMLIM=3000 MEMORY=500000 $END                                         
 $BASIS  GBASIS=DH NDFUNC=1 POLAR=DUNNING $END                                  
 $GUESS  GUESS=MOREAD  NORB=13  $END                                            
 $DRT    GROUP=C1 FORS=.TRUE. NMCC=9 NDOC=2 NVAL=2 $END                         
 $MCSCF CISTEP=GUGA SOSCF=.T. $END                                                        
 $DATA                                                                          
CYCLOPROPYLIDENE-ALLENE C:(9S,5P,1D)->[3S,2P,1D] H:(4S)->[2S]                   
C1                                                                              
 CARBON      6.                                                                 
 CARBON      6.     2.0699475322        0.0000000000        1.7368922108        
 CARBON      6.    -2.0250073649        0.0000000000        1.6991829330        
 HYDROGEN    1.     3.2600086064        1.5682637136        1.0465991584        
 HYDROGEN    1.     1.8052658191       -0.8356829927        3.6856022040        
 HYDROGEN    1.    -2.3078173849        2.0308515073        2.1635158323        
 HYDROGEN    1.    -2.7469707368       -1.5548078560        2.8845417321        
 $END                                                                           
 $ZMAT IZMAT(1)=2,2,1,3,  1,1,2,  1,1,3,  1,2,4,  1,2,5,  1,3,6                 
                1,3,7   2,1,2,4,   2,1,2,5,   2,1,3,6,   2,1,3,7,               
                4,1,2,4,5,  4,1,3,6,7,  6,3,1,2,5,4,  6,2,1,3,6,7  $END         
 $VEC
 1  1 0.12076158E-01 0.42551493E-03 0.25861090E-03-0.73990395E-03-0.16710564E-03
 1  2 0.51146296E-03-0.11550665E-03 0.89128571E-04-0.40173224E-04 0.23977903E-03
 1  3-0.98248388E-04 0.20141286E-03 0.88978573E-04-0.29128056E-03-0.37492974E-04
 1  4 0.99556101E-03-0.11182882E-04-0.57100924E-04-0.15097242E-03 0.27188261E-03
 1  5 0.11954984E-03-0.66695079E-04 0.20185956E-03 0.24680551E-04-0.97563878E-07
 1  6-0.12461496E-04-0.11149943E-04-0.10102339E-04 0.55895680E-06 0.13731229E-05
 1  7 0.99910555E+00 0.40658421E-02-0.34096890E-03 0.53660702E-03-0.18066389E-02
 1  8 0.42072168E-05 0.19779200E-03-0.26456135E-03-0.58655892E-04-0.77646619E-03
 1  9-0.63229981E-03-0.72691448E-03 0.42893282E-04-0.26126010E-03-0.14104240E-03
 1 10 0.43910685E-04 0.16829318E-04 0.18456638E-05 0.90694910E-04-0.84682114E-03
 1 11-0.10874832E-02 0.55867113E-03 0.18733380E-03
 2  1 0.39318676E-01 0.38651655E-03-0.16193834E-03 0.36018098E-03-0.30684287E-04
 2  2 0.30825804E-03-0.20777026E-03 0.89675537E-04-0.13570723E-03 0.10968281E-03
 2  3-0.34627269E-04 0.43014170E-04-0.68684748E-04 0.16795893E-03-0.21511127E-04
 2  4 0.99803714E+00 0.46347099E-02 0.82607001E-03-0.54354246E-03 0.52381058E-03
 2  5 0.20290635E-03 0.15254736E-03-0.10619643E-03-0.14025233E-03-0.59692434E-03
 2  6-0.58767421E-03-0.47140278E-03 0.14669188E-03 0.63195091E-04-0.12928174E-03
 2  7-0.14824690E-02 0.57566723E-04-0.17633666E-03 0.73259637E-04 0.61107379E-04
 2  8 0.69517807E-04 0.22981836E-04-0.52437605E-04 0.12017698E-03 0.82025568E-05
 2  9 0.22102135E-04 0.26164147E-04 0.17121928E-04 0.46484597E-05 0.46792746E-05
 2 10 0.42436051E-03-0.25169927E-03 0.39544643E-03-0.11462630E-03 0.11664644E-04
 2 11 0.12282458E-03-0.12716406E-05 0.65421125E-05
 3  1-0.99816348E+00-0.33616879E-02-0.20468558E-02 0.43697943E-03 0.88890994E-03
 3  2-0.19565996E-02-0.84152854E-04-0.58814260E-03 0.32261518E-03-0.13613870E-03
 3  3 0.76601614E-03-0.22462305E-03 0.45506300E-05 0.18630963E-03 0.24621790E-03
 3  4 0.39644021E-01-0.13954534E-03 0.43591242E-03-0.14375107E-03 0.15720363E-03
 3  5 0.22671211E-03-0.23527558E-03 0.23150230E-03-0.39368495E-03 0.17482760E-03
 3  6 0.39471444E-05-0.44591183E-04 0.62996160E-04-0.23588136E-04-0.19283803E-04
 3  7 0.12484589E-01-0.42497853E-03 0.79032620E-03 0.16194834E-03-0.25151512E-04
 3  8 0.12013813E-03 0.48546756E-03 0.41096227E-03-0.40246965E-03 0.25723827E-03
 3  9 0.94786039E-04 0.38728142E-04-0.54790649E-04-0.13024920E-03 0.96153298E-05
 3 10-0.33086130E-04-0.23940402E-04 0.31186247E-05 0.12909635E-03-0.67719803E-04
 3 11-0.23446137E-03-0.27008986E-04 0.27821614E-03
 4  1 0.15035114E+00-0.29258235E+00-0.16870943E+00 0.10437291E-01 0.34024315E-01
 4  2-0.15037819E+00 0.13385980E-02-0.77475766E-03 0.91959509E-02-0.13322344E-01
 4  3 0.90268834E-02-0.15889412E-01-0.17896627E-02 0.37674001E-03 0.39460959E-02
 4  4 0.12618602E+00-0.24661376E+00-0.17683955E+00 0.79174657E-01 0.83312607E-02
 4  5 0.55415954E-01-0.65500812E-02 0.11446180E-01-0.14411081E-01-0.15419317E-01
 4  6-0.20823670E-02-0.11532628E-01-0.78135702E-02-0.80583060E-02 0.62071152E-02
 4  7 0.10257705E+00-0.20197927E+00-0.12912273E+00-0.12794029E+00 0.88244061E-01
 4  8 0.90301046E-01 0.42455151E-02 0.27995961E-01-0.28830140E-02-0.14964188E-01
 4  9-0.40041966E-03-0.68863673E-02-0.11986111E-02 0.15004496E-01 0.23619234E-02
 4 10-0.68419295E-01-0.16936221E-01-0.64754622E-01 0.22097959E-02-0.13870876E-02
 4 11 0.31320686E-01-0.57457754E-01-0.11838923E-02
 5  1-0.26241156E-01 0.54466650E-01 0.40639266E-01-0.23625469E+00-0.30024219E-01
 5  2 0.35482968E-01 0.16822263E-01 0.72403922E-02-0.26436109E-02 0.20188516E-02
 5  3-0.25132395E-02 0.38661895E-02 0.62193074E-02-0.26746301E-01-0.41581787E-02
 5  4 0.14459619E+00-0.29002788E+00-0.27794261E+00-0.57379530E-01-0.48414757E-01
 5  5 0.17298136E-01 0.38578151E-02 0.60967968E-02 0.38256207E-02-0.15987830E-02
 5  6-0.10810619E-01-0.15432115E-01-0.11739675E-01 0.21261772E-02 0.12975858E-01
 5  7-0.12967494E+00 0.26357318E+00 0.23028145E+00 0.53201967E-01-0.17316846E+00
 5  8-0.42152543E-01 0.17441822E-01-0.41179774E-01-0.51659162E-02 0.30490065E-02
 5  9 0.91418025E-02 0.11535713E-01 0.47065603E-02-0.16179264E-01-0.99237769E-02
 5 10-0.13578934E+00-0.64814054E-01-0.92479678E-01-0.37711088E-01-0.39455970E-02
 5 11-0.40687506E-01 0.13849158E+00 0.67660596E-01
 6  1 0.11084301E+00-0.22310008E+00-0.22565399E+00 0.50876662E-01-0.24796596E-01
 6  2-0.15455773E-01-0.59177532E-02-0.36865073E-02 0.26240255E-02-0.10070288E-01
 6  3 0.22301512E-02-0.17681968E-02 0.27315808E-02 0.62341400E-02-0.33816148E-02
 6  4-0.56509378E-01 0.11498035E+00 0.12872362E+00 0.84675123E-01 0.65673049E-02
 6  5 0.18951436E+00-0.31067445E-02 0.13934667E-01 0.14931955E-01-0.50679756E-02
 6  6 0.50189047E-02 0.13050034E-01 0.66878397E-02-0.14495412E-01-0.94238027E-02
 6  7-0.53007771E-01 0.10445541E+00 0.13519861E+00-0.18519609E+00-0.21211992E+00
 6  8 0.28759306E+00 0.16411265E-03-0.18806187E-01 0.45416819E-01-0.52021684E-02
 6  9 0.16095264E-01 0.43266236E-02 0.95974556E-02 0.14713643E-02-0.19272481E-01
 6 10 0.50946068E-01 0.28501039E-01 0.13080923E+00 0.98499939E-01-0.87540651E-02
 6 11-0.34600708E-01 0.22760178E+00 0.16021701E+00
 7  1-0.21356786E-01 0.46488762E-01 0.79408968E-01 0.16258224E+00 0.57883530E-01
 7  2-0.86261879E-01 0.78758496E-03 0.15453966E-01-0.10025889E-01 0.53966836E-02
 7  3 0.28849688E-02-0.94482499E-02 0.52743639E-02 0.14039415E-01 0.49602188E-02
 7  4 0.10529240E-01-0.18873992E-01-0.36878073E-01 0.10135509E+00 0.26488149E+00
 7  5-0.38175054E+00 0.17694677E-01 0.46023232E-01-0.54444925E-01 0.48531857E-02
 7  6 0.13322700E-01-0.23479078E-01 0.72069339E-02 0.66975191E-02 0.19829975E-02
 7  7-0.11953661E-01 0.30247342E-01 0.23545617E-02-0.13990042E+00-0.99148745E-01
 7  8 0.13941079E+00-0.19018386E-01-0.75417594E-02 0.23555771E-01-0.37078121E-02
 7  9 0.95173723E-02 0.48731951E-02 0.79349847E-02-0.47252697E-02-0.10244130E-01
 7 10 0.16456880E+00 0.12449996E+00-0.22753214E+00-0.18795615E+00-0.80457440E-02
 7 11-0.12223597E-01 0.11938875E+00 0.10860113E+00
 8  1-0.32009598E-01 0.69694511E-01 0.88602991E-01 0.38273386E+00-0.11354917E+00
 8  2 0.42296673E-01 0.39620286E-01-0.27183262E-01 0.81392292E-02-0.26394760E-02
 8  3 0.13367498E-02 0.47890491E-02-0.12768144E-01 0.33022876E-01-0.10691333E-01
 8  4-0.54054448E-02 0.11306558E-01 0.87795740E-02-0.30453904E+00-0.31799827E+00
 8  5-0.19058246E+00-0.54808888E-01-0.11772080E+00-0.46166672E-01 0.26539079E-02
 8  6-0.17968881E-01 0.82179992E-02-0.82318544E-02 0.21139138E-01 0.13089694E-01
 8  7 0.41913397E-01-0.87510170E-01-0.97634128E-01-0.12337045E+00-0.31174241E-01
 8  8 0.21294231E+00-0.45877374E-01 0.10161639E-01 0.50276703E-01 0.28771831E-02
 8  9 0.26911051E-02-0.67068495E-02-0.24419355E-02 0.52476400E-02-0.30157980E-02
 8 10-0.19115209E+00-0.14973244E+00-0.21043735E-01-0.29560066E-01 0.77413077E-03
 8 11 0.28433757E-01 0.51532802E-01 0.35644626E-01
 9  1-0.93637123E-01 0.20254681E+00 0.38253494E+00 0.26541633E-01 0.18250519E+00
 9  2-0.52677508E+00-0.27339739E-01 0.87127678E-01-0.24295959E+00 0.76349309E-02
 9  3 0.15642751E-01-0.23398787E-01 0.16034230E-02 0.86083886E-02 0.10814511E-01
 9  4 0.19071336E-01-0.51942790E-01-0.22839770E-01 0.57981954E-02-0.37928727E-02
 9  5 0.17730685E+00-0.47096926E-01 0.58379323E-01 0.10497125E-01-0.25756179E-01
 9  6-0.50180828E-02 0.21677087E-01-0.11635449E-01 0.25994219E-02-0.72604736E-02
 9  7 0.31606565E-01-0.78574962E-01-0.11726676E+00-0.22557684E+00-0.11183357E-01
 9  8 0.25084138E-01-0.36420607E-01 0.26485615E-01-0.13570226E-01-0.20599328E-01
 9  9-0.11359519E-02 0.14560403E-01 0.85663190E-02-0.85488621E-03-0.94605813E-02
 9 10-0.68105370E-01-0.85488600E-01 0.11264581E+00 0.23270034E+00-0.18586709E-01
 9 11-0.12093657E-02 0.53166933E-01 0.15314378E+00
10  1-0.17163357E-01 0.34286235E-01 0.18986321E-01-0.26681115E-01 0.15925019E+00
10  2-0.42970356E-01-0.23846150E-01 0.73216922E-01-0.66059374E-01-0.14626154E-01
10  3 0.57749191E-02 0.70553212E-02-0.46841170E-02-0.74280256E-02 0.10331771E-01
10  4 0.18925473E-01-0.38351569E-01-0.41361234E-01 0.90806758E-01-0.41371272E-01
10  5-0.43670053E-02 0.33570192E-01 0.32837053E-01-0.28156401E-01 0.43606007E-04
10  6-0.18793224E-02-0.39012581E-02-0.10070265E-01-0.56019783E-02 0.18313024E-02
10  7 0.81392389E-01-0.46145715E+00-0.18417641E+00 0.50195077E+00-0.48653004E+00
10  8 0.15758022E+00 0.16089345E+00 0.67672989E-01 0.11072480E+00 0.25477180E-01
10  9-0.27662951E-01 0.51618091E-01 0.74101667E-01-0.13249657E-01-0.25213501E-01
10 10-0.11458055E-01-0.57992589E-01-0.68449542E-02 0.21057931E-01 0.62788723E+00
10 11 0.36604225E+00 0.50819953E-01 0.13511812E+00
11  1-0.12517072E-01 0.34006848E-01 0.43992431E-01 0.14967567E-01 0.25845527E+00
11  2 0.24143957E-01-0.27644071E-01 0.11291555E+00-0.42509451E-01-0.21328152E-01
11  3-0.93503821E-03 0.23922915E-01-0.10702089E-01-0.11235952E-01 0.18320037E-01
11  4 0.17482233E-01-0.60991252E-01-0.29878671E-01 0.11091811E-01 0.43743548E-02
11  5 0.18704655E-01-0.30578477E-01 0.85675422E-01-0.57237339E-02 0.45037982E-02
11  6-0.10334126E-01-0.10820922E-01-0.13983875E-01-0.66761619E-02 0.20816634E-02
11  7-0.80250244E-01 0.37839465E+00 0.10652830E+00 0.13182772E+00 0.65953326E+00
11  8 0.45072289E+00 0.19791330E+00 0.11538958E+00 0.16112081E+00-0.16736383E-01
11  9 0.34593494E-01-0.54228824E-01-0.28746541E-01 0.26725606E-02 0.78148920E-02
11 10-0.31497529E-01-0.82050914E-01-0.10066320E-01 0.16897735E-01-0.42216553E+00
11 11-0.34380088E+00 0.84263490E-02 0.95580558E-01
12  1-0.27163399E-01 0.63749430E-01 0.70929510E-01-0.54689870E-01 0.57924829E-01
12  2 0.14353862E-01-0.41602983E-01 0.59644262E-01-0.26960830E-01-0.88063687E-02
12  3 0.61344383E-03 0.10160040E-01 0.63559709E-02-0.53279162E-02-0.57613549E-03
12  4 0.98556775E-02-0.28517083E-01-0.29559498E-01-0.63375790E-02 0.50918798E-01
12  5 0.34860269E-01-0.19176527E-01 0.64583966E-01 0.63961484E-02 0.27137413E-02
12  6-0.28109423E-02-0.51130322E-02-0.30904018E-02-0.26491896E-02-0.28394619E-03
12  7 0.87593751E-01-0.18211151E+00-0.17027111E+00 0.27752041E+00-0.36325101E+00
12  8 0.43235845E-01 0.12360780E+00-0.27602934E-01 0.47716585E-01 0.68072765E-02
12  9-0.34526979E-01 0.31191057E-02 0.11246179E-01-0.31387817E-02-0.15582866E-01
12 10 0.11933478E-02-0.14897835E-01-0.45932334E-03 0.19500153E-01-0.34518772E+00
12 11-0.27713387E+00 0.47755082E-01 0.12546500E+00
13  1 0.83323487E-02-0.30880698E-01-0.93874906E-01 0.14978011E+00 0.54556402E-01
13  2 0.11652908E+00 0.40647891E-01-0.57616216E-02 0.21532862E-01-0.20160430E-02
13  3-0.78906539E-02 0.10515123E-01 0.22759448E-01 0.25214654E-01 0.10289130E-01
13  4 0.47102496E-02-0.19622728E-01-0.42998795E-01-0.57273509E+00 0.48879774E+00
13  5 0.17394058E+00-0.18753281E+00 0.19913215E+00 0.67908458E-01 0.41528231E-02
13  6 0.84598858E-04 0.52527890E-02-0.13321571E-01 0.11748014E-01-0.11039653E-01
13  7 0.23735487E-01-0.10820167E+00-0.17985812E-01-0.17320183E+00-0.13597996E+00
13  8-0.14738554E+00-0.10332519E+00-0.45217657E-01-0.40935802E-01 0.10806954E-01
13  9-0.14338118E-01 0.97048268E-02 0.47298023E-02 0.13297023E-01-0.42101033E-03
13 10-0.23653847E-01-0.23565684E-01 0.30394623E-01 0.56007142E-01 0.13495622E+00
13 11 0.69097596E-01-0.10464200E-01-0.58998276E-01
 $END
