! Bench 6
! 
! O2 cation...4-SIGMA-MINUS-G to 4-SIGMA-MINUS-U transition moment
! Basis: van Duijneveldt 11s,6p,2d contracted (611111/3111/11)
!
! Nonorthogonal transition moment calculation, ala
! B.H.Lengsfield, III,  J.A.Jafri,  D.H.Phillips,
! C.W.Bauschlicher, Jr.   J.Chem.Phys. 74,6849-6855(1981)
! whose computed nonorthogonal TM at R=2.2 is 0.568.
!
! CI STATE 3 ENERGY = -149.1291611039
! CI STATE 4 ENERGY = -148.9048992103
!
! TRANSITION DIPOLE LENGTH=0.568226, Dipole VELOCITY=0.167424.
!
 $CONTRL 
   SCFTYP=NONE RUNTYP=TRANSITN NZVAR=1 UNITS=BOHR CITYP=GUGA MULT=4 ICHARG=1 
 $END
 $SYSTEM TIMLIM=600 MEMORY=500000 $END
! We need extra states to capture the 4th root.
! A faster way to do this is NSTATE=4 NEXTRA=5
 $GUGDIA NSTATE=10 $END
 $CIDRT1 GROUP=C1 FORS=.TRUE. NFZC=2 NDOC=4 NALP=3 NVAL=1 $END
 $TRANST NFZC=2 NOCC=10 NUMVEC=2 NUMCI=2 IROOTS(1)=3,4 $END
 $ZMAT   IZMAT(1)=1,1,2 $END
 $DATA
DIOXYGEN CATION
CS

OXYGEN     8.0      0.0      0.0     -1.10
  S    6
    1 31195.564766     0.0005364269
    2  4669.379711     0.004167360
    3  1062.617249     0.02163413
    4   301.425731     0.08753606
    5    98.515283     0.2824225
    6    35.460976     0.6899668
  S    1
    1    13.617874     1.0
  S    1
    1     5.386177     1.0
  S    1
    1     1.538729     1.0
  S    1
    1     0.605501     1.0
  S    1
    1     0.220544     1.0
  P    3
    1   64.771949      0.03102232
    2   14.972658      0.2154062
    3    4.554398      0.8363212
  P    1
    1    1.563689      1.0
  P    1
    1    0.541065      1.0
  P    1
    1    0.177759      1.0
  D    1
    1    2.21          1.0
  D    1
    1    0.66          1.0

 $END
! MCSCF MOS
 $VEC1
 1  1 0.27632986E+00 0.29952565E+00 0.20186657E+00 0.20530450E-01-0.12846069E-01
 1  2-0.10685851E-02 0.00000000E+00 0.00000000E+00-0.72717903E-03 0.00000000E+00
 1  3 0.00000000E+00 0.19049739E-04 0.00000000E+00 0.00000000E+00-0.51212761E-04
 1  4 0.00000000E+00 0.00000000E+00 0.65622732E-04 0.16486459E-02 0.16486459E-02
 1  5 0.16661522E-02 0.00000000E+00 0.00000000E+00 0.00000000E+00 0.26843221E-02
 1  6 0.26843221E-02 0.24882550E-02 0.00000000E+00 0.00000000E+00 0.00000000E+00
 1  7 0.27632986E+00 0.29952565E+00 0.20186657E+00 0.20530450E-01-0.12846069E-01
 1  8-0.10685851E-02 0.00000000E+00 0.00000000E+00 0.72717903E-03 0.00000000E+00
 1  9 0.00000000E+00-0.19049739E-04 0.00000000E+00 0.00000000E+00 0.51212761E-04
 1 10 0.00000000E+00 0.00000000E+00-0.65622732E-04 0.16486459E-02 0.16486459E-02
 1 11 0.16661522E-02 0.00000000E+00 0.00000000E+00 0.00000000E+00 0.26843221E-02
 1 12 0.26843221E-02 0.24882550E-02 0.00000000E+00 0.00000000E+00 0.00000000E+00
 2  1-0.27636268E+00-0.29949655E+00-0.20233710E+00-0.20775027E-01 0.14433920E-01
 2  2 0.38184500E-02 0.00000000E+00 0.00000000E+00 0.85593339E-03 0.00000000E+00
 2  3 0.00000000E+00-0.69628550E-04 0.00000000E+00 0.00000000E+00 0.55859766E-03
 2  4 0.00000000E+00 0.00000000E+00-0.75561454E-03-0.20437489E-02-0.20437489E-02
 2  5-0.19229997E-02 0.00000000E+00 0.00000000E+00 0.00000000E+00-0.34807292E-02
 2  6-0.34807292E-02-0.33544407E-02 0.00000000E+00 0.00000000E+00 0.00000000E+00
 2  7 0.27636268E+00 0.29949655E+00 0.20233710E+00 0.20775027E-01-0.14433920E-01
 2  8-0.38184500E-02 0.00000000E+00 0.00000000E+00 0.85593339E-03 0.00000000E+00
 2  9 0.00000000E+00-0.69628550E-04 0.00000000E+00 0.00000000E+00 0.55859766E-03
 2 10 0.00000000E+00 0.00000000E+00-0.75561454E-03 0.20437489E-02 0.20437489E-02
 2 11 0.19229997E-02 0.00000000E+00 0.00000000E+00 0.00000000E+00 0.34807292E-02
 2 12 0.34807292E-02 0.33544407E-02 0.00000000E+00 0.00000000E+00 0.00000000E+00
 3  1-0.62497665E-01-0.10230599E+00-0.78311535E-01 0.12197705E+00 0.38428469E+00
 3  2 0.92218040E-01 0.00000000E+00 0.00000000E+00-0.45939306E-01 0.00000000E+00
 3  3 0.00000000E+00-0.10155105E+00 0.00000000E+00 0.00000000E+00-0.91932553E-01
 3  4 0.00000000E+00 0.00000000E+00-0.61780688E-02 0.20291707E-02 0.20292972E-02
 3  5 0.23801046E-01 0.00000000E+00 0.00000000E+00 0.00000000E+00-0.10930462E-01
 3  6-0.10930316E-01 0.13343065E-01 0.00000000E+00 0.00000000E+00 0.00000000E+00
 3  7-0.62497665E-01-0.10230599E+00-0.78311535E-01 0.12197705E+00 0.38428469E+00
 3  8 0.92218040E-01 0.00000000E+00 0.00000000E+00 0.45939306E-01 0.00000000E+00
 3  9 0.00000000E+00 0.10155105E+00 0.00000000E+00 0.00000000E+00 0.91932553E-01
 3 10 0.00000000E+00 0.00000000E+00 0.61780688E-02 0.20291707E-02 0.20292972E-02
 3 11 0.23801046E-01 0.00000000E+00 0.00000000E+00 0.00000000E+00-0.10930462E-01
 3 12-0.10930316E-01 0.13343065E-01 0.00000000E+00 0.00000000E+00 0.00000000E+00
 4  1-0.68082462E-01-0.11216401E+00-0.91695297E-01 0.16005465E+00 0.46048480E+00
 4  2 0.25953825E+00 0.00000000E+00 0.00000000E+00 0.38947166E-01 0.00000000E+00
 4  3 0.00000000E+00 0.72386133E-01 0.00000000E+00 0.00000000E+00 0.63028932E-01
 4  4 0.00000000E+00 0.00000000E+00-0.11232451E-02 0.87883727E-02 0.87885740E-02
 4  5 0.30520609E-02 0.00000000E+00 0.00000000E+00 0.00000000E+00 0.53825474E-02
 4  6 0.53828889E-02 0.37435425E-02 0.00000000E+00 0.00000000E+00 0.00000000E+00
 4  7 0.68082462E-01 0.11216401E+00 0.91695297E-01-0.16005465E+00-0.46048480E+00
 4  8-0.25953825E+00 0.00000000E+00 0.00000000E+00 0.38947166E-01 0.00000000E+00
 4  9 0.00000000E+00 0.72386133E-01 0.00000000E+00 0.00000000E+00 0.63028932E-01
 4 10 0.00000000E+00 0.00000000E+00-0.11232451E-02-0.87883727E-02-0.87885740E-02
 4 11-0.30520609E-02 0.00000000E+00 0.00000000E+00 0.00000000E+00-0.53825474E-02
 4 12-0.53828889E-02-0.37435425E-02 0.00000000E+00 0.00000000E+00 0.00000000E+00
 5  1-0.27124153E-01-0.44838301E-01-0.39199524E-01 0.87628660E-01 0.17386084E+00
 5  2 0.12629972E+00 0.00000000E+00 0.00000000E+00 0.12892414E+00 0.00000000E+00
 5  3 0.00000000E+00 0.25969463E+00 0.00000000E+00 0.00000000E+00 0.27999595E+00
 5  4 0.00000000E+00 0.00000000E+00 0.58094118E-01 0.82503282E-02 0.82501779E-02
 5  5-0.11663418E-01 0.00000000E+00 0.00000000E+00 0.00000000E+00 0.15413153E-01
 5  6 0.15412869E-01-0.60701365E-02 0.00000000E+00 0.00000000E+00 0.00000000E+00
 5  7-0.27124153E-01-0.44838301E-01-0.39199524E-01 0.87628660E-01 0.17386084E+00
 5  8 0.12629972E+00 0.00000000E+00 0.00000000E+00-0.12892414E+00 0.00000000E+00
 5  9 0.00000000E+00-0.25969463E+00 0.00000000E+00 0.00000000E+00-0.27999595E+00
 5 10 0.00000000E+00 0.00000000E+00-0.58094118E-01 0.82503282E-02 0.82501779E-02
 5 11-0.11663418E-01 0.00000000E+00 0.00000000E+00 0.00000000E+00 0.15413153E-01
 5 12 0.15412869E-01-0.60701365E-02 0.00000000E+00 0.00000000E+00 0.00000000E+00
 6  1 0.00000000E+00 0.00000000E+00 0.00000000E+00 0.00000000E+00 0.00000000E+00
 6  2 0.00000000E+00-0.13035254E+00 0.00000000E+00 0.00000000E+00-0.24343373E+00
 6  3 0.00000000E+00 0.00000000E+00-0.31171158E+00 0.00000000E+00 0.00000000E+00
 6  4-0.91055894E-01 0.00000000E+00 0.00000000E+00 0.00000000E+00 0.00000000E+00
 6  5 0.00000000E+00 0.00000000E+00 0.10597752E-01 0.00000000E+00 0.00000000E+00
 6  6 0.00000000E+00 0.00000000E+00 0.00000000E+00 0.30973195E-01 0.00000000E+00
 6  7 0.00000000E+00 0.00000000E+00 0.00000000E+00 0.00000000E+00 0.00000000E+00
 6  8 0.00000000E+00-0.13035254E+00 0.00000000E+00 0.00000000E+00-0.24343373E+00
 6  9 0.00000000E+00 0.00000000E+00-0.31171158E+00 0.00000000E+00 0.00000000E+00
 6 10-0.91055894E-01 0.00000000E+00 0.00000000E+00 0.00000000E+00 0.00000000E+00
 6 11 0.00000000E+00 0.00000000E+00-0.10597752E-01 0.00000000E+00 0.00000000E+00
 6 12 0.00000000E+00 0.00000000E+00 0.00000000E+00-0.30973195E-01 0.00000000E+00
 7  1 0.00000000E+00 0.00000000E+00 0.00000000E+00 0.00000000E+00 0.00000000E+00
 7  2 0.00000000E+00 0.00000000E+00-0.13035257E+00 0.00000000E+00 0.00000000E+00
 7  3-0.24343389E+00 0.00000000E+00 0.00000000E+00-0.31171153E+00 0.00000000E+00
 7  4 0.00000000E+00-0.91055753E-01 0.00000000E+00 0.00000000E+00 0.00000000E+00
 7  5 0.00000000E+00 0.00000000E+00 0.00000000E+00 0.10597848E-01 0.00000000E+00
 7  6 0.00000000E+00 0.00000000E+00 0.00000000E+00 0.00000000E+00 0.30973232E-01
 7  7 0.00000000E+00 0.00000000E+00 0.00000000E+00 0.00000000E+00 0.00000000E+00
 7  8 0.00000000E+00 0.00000000E+00-0.13035257E+00 0.00000000E+00 0.00000000E+00
 7  9-0.24343389E+00 0.00000000E+00 0.00000000E+00-0.31171153E+00 0.00000000E+00
 7 10 0.00000000E+00-0.91055753E-01 0.00000000E+00 0.00000000E+00 0.00000000E+00
 7 11 0.00000000E+00 0.00000000E+00 0.00000000E+00-0.10597848E-01 0.00000000E+00
 7 12 0.00000000E+00 0.00000000E+00 0.00000000E+00 0.00000000E+00-0.30973232E-01
 8  1 0.00000000E+00 0.00000000E+00 0.00000000E+00 0.00000000E+00 0.00000000E+00
 8  2 0.00000000E+00 0.15576285E+00 0.00000000E+00 0.00000000E+00 0.29517722E+00
 8  3 0.00000000E+00 0.00000000E+00 0.37068532E+00 0.00000000E+00 0.00000000E+00
 8  4 0.15675649E+00 0.00000000E+00 0.00000000E+00 0.00000000E+00 0.00000000E+00
 8  5 0.00000000E+00 0.00000000E+00 0.48687720E-02 0.00000000E+00 0.00000000E+00
 8  6 0.00000000E+00 0.00000000E+00 0.00000000E+00 0.94921323E-02 0.00000000E+00
 8  7 0.00000000E+00 0.00000000E+00 0.00000000E+00 0.00000000E+00 0.00000000E+00
 8  8 0.00000000E+00-0.15576285E+00 0.00000000E+00 0.00000000E+00-0.29517722E+00
 8  9 0.00000000E+00 0.00000000E+00-0.37068532E+00 0.00000000E+00 0.00000000E+00
 8 10-0.15675649E+00 0.00000000E+00 0.00000000E+00 0.00000000E+00 0.00000000E+00
 8 11 0.00000000E+00 0.00000000E+00 0.48687720E-02 0.00000000E+00 0.00000000E+00
 8 12 0.00000000E+00 0.00000000E+00 0.00000000E+00 0.94921323E-02 0.00000000E+00
 9  1 0.00000000E+00 0.00000000E+00 0.00000000E+00 0.00000000E+00 0.00000000E+00
 9  2 0.00000000E+00 0.00000000E+00 0.15576287E+00 0.00000000E+00 0.00000000E+00
 9  3 0.29517743E+00 0.00000000E+00 0.00000000E+00 0.37068595E+00 0.00000000E+00
 9  4 0.00000000E+00 0.15675580E+00 0.00000000E+00 0.00000000E+00 0.00000000E+00
 9  5 0.00000000E+00 0.00000000E+00 0.00000000E+00 0.48683206E-02 0.00000000E+00
 9  6 0.00000000E+00 0.00000000E+00 0.00000000E+00 0.00000000E+00 0.94909660E-02
 9  7 0.00000000E+00 0.00000000E+00 0.00000000E+00 0.00000000E+00 0.00000000E+00
 9  8 0.00000000E+00 0.00000000E+00-0.15576287E+00 0.00000000E+00 0.00000000E+00
 9  9-0.29517743E+00 0.00000000E+00 0.00000000E+00-0.37068595E+00 0.00000000E+00
 9 10 0.00000000E+00-0.15675580E+00 0.00000000E+00 0.00000000E+00 0.00000000E+00
 9 11 0.00000000E+00 0.00000000E+00 0.00000000E+00 0.48683206E-02 0.00000000E+00
 9 12 0.00000000E+00 0.00000000E+00 0.00000000E+00 0.00000000E+00 0.94909660E-02
10  1-0.35143532E-01-0.59709138E-01-0.47983999E-01 0.11331314E+00 0.33242023E+00
10  2 0.16005731E+00 0.00000000E+00 0.00000000E+00-0.18590991E+00 0.00000000E+00
10  3 0.00000000E+00-0.40395290E+00 0.00000000E+00 0.00000000E+00-0.46451041E+00
10  4 0.00000000E+00 0.00000000E+00-0.45338691E-01 0.18157092E-01 0.18179284E-01
10  5-0.22648130E-01 0.00000000E+00 0.00000000E+00 0.00000000E+00 0.14380476E-01
10  6 0.14414671E-01 0.21136624E-01 0.00000000E+00 0.00000000E+00 0.00000000E+00
10  7 0.35143532E-01 0.59709138E-01 0.47983999E-01-0.11331314E+00-0.33242023E+00
10  8-0.16005731E+00 0.00000000E+00 0.00000000E+00-0.18590991E+00 0.00000000E+00
10  9 0.00000000E+00-0.40395290E+00 0.00000000E+00 0.00000000E+00-0.46451041E+00
10 10 0.00000000E+00 0.00000000E+00-0.45338691E-01-0.18157092E-01-0.18179284E-01
10 11 0.22648130E-01 0.00000000E+00 0.00000000E+00 0.00000000E+00-0.14380476E-01
10 12-0.14414671E-01-0.21136624E-01 0.00000000E+00 0.00000000E+00 0.00000000E+00
 $END
! MCSCF MOS
 $VEC2
 1  1 0.27632986E+00 0.29952565E+00 0.20186657E+00 0.20530450E-01-0.12846069E-01
 1  2-0.10685851E-02 0.00000000E+00 0.00000000E+00-0.72717903E-03 0.00000000E+00
 1  3 0.00000000E+00 0.19049739E-04 0.00000000E+00 0.00000000E+00-0.51212761E-04
 1  4 0.00000000E+00 0.00000000E+00 0.65622732E-04 0.16486459E-02 0.16486459E-02
 1  5 0.16661522E-02 0.00000000E+00 0.00000000E+00 0.00000000E+00 0.26843221E-02
 1  6 0.26843221E-02 0.24882550E-02 0.00000000E+00 0.00000000E+00 0.00000000E+00
 1  7 0.27632986E+00 0.29952565E+00 0.20186657E+00 0.20530450E-01-0.12846069E-01
 1  8-0.10685851E-02 0.00000000E+00 0.00000000E+00 0.72717903E-03 0.00000000E+00
 1  9 0.00000000E+00-0.19049739E-04 0.00000000E+00 0.00000000E+00 0.51212761E-04
 1 10 0.00000000E+00 0.00000000E+00-0.65622734E-04 0.16486459E-02 0.16486459E-02
 1 11 0.16661522E-02 0.00000000E+00 0.00000000E+00 0.00000000E+00 0.26843221E-02
 1 12 0.26843221E-02 0.24882550E-02 0.00000000E+00 0.00000000E+00 0.00000000E+00
 2  1-0.27636268E+00-0.29949655E+00-0.20233710E+00-0.20775027E-01 0.14433920E-01
 2  2 0.38184500E-02 0.00000000E+00 0.00000000E+00 0.85593335E-03 0.00000000E+00
 2  3 0.00000000E+00-0.69628546E-04 0.00000000E+00 0.00000000E+00 0.55859766E-03
 2  4 0.00000000E+00 0.00000000E+00-0.75561450E-03-0.20437489E-02-0.20437489E-02
 2  5-0.19229997E-02 0.00000000E+00 0.00000000E+00 0.00000000E+00-0.34807292E-02
 2  6-0.34807292E-02-0.33544407E-02 0.00000000E+00 0.00000000E+00 0.00000000E+00
 2  7 0.27636268E+00 0.29949655E+00 0.20233710E+00 0.20775027E-01-0.14433920E-01
 2  8-0.38184500E-02 0.00000000E+00 0.00000000E+00 0.85593335E-03 0.00000000E+00
 2  9 0.00000000E+00-0.69628546E-04 0.00000000E+00 0.00000000E+00 0.55859766E-03
 2 10 0.00000000E+00 0.00000000E+00-0.75561450E-03 0.20437489E-02 0.20437489E-02
 2 11 0.19229997E-02 0.00000000E+00 0.00000000E+00 0.00000000E+00 0.34807292E-02
 2 12 0.34807292E-02 0.33544407E-02 0.00000000E+00 0.00000000E+00 0.00000000E+00
 3  1-0.62008157E-01-0.10133965E+00-0.77530765E-01 0.11886299E+00 0.37943799E+00
 3  2 0.96626878E-01 0.00000000E+00 0.00000000E+00-0.46649679E-01 0.00000000E+00
 3  3 0.00000000E+00-0.10163107E+00 0.00000000E+00 0.00000000E+00-0.92584627E-01
 3  4 0.00000000E+00 0.00000000E+00-0.48777267E-02 0.20052569E-02 0.20052569E-02
 3  5 0.24166207E-01 0.00000000E+00 0.00000000E+00 0.00000000E+00-0.10541716E-01
 3  6-0.10541716E-01 0.15244056E-01 0.00000000E+00 0.00000000E+00 0.00000000E+00
 3  7-0.62008157E-01-0.10133965E+00-0.77530765E-01 0.11886299E+00 0.37943799E+00
 3  8 0.96626878E-01 0.00000000E+00 0.00000000E+00 0.46649679E-01 0.00000000E+00
 3  9 0.00000000E+00 0.10163107E+00 0.00000000E+00 0.00000000E+00 0.92584627E-01
 3 10 0.00000000E+00 0.00000000E+00 0.48777267E-02 0.20052569E-02 0.20052569E-02
 3 11 0.24166207E-01 0.00000000E+00 0.00000000E+00 0.00000000E+00-0.10541716E-01
 3 12-0.10541716E-01 0.15244056E-01 0.00000000E+00 0.00000000E+00 0.00000000E+00
 4  1-0.69054725E-01-0.11370727E+00-0.93155354E-01 0.16463263E+00 0.46614724E+00
 4  2 0.23480229E+00 0.00000000E+00 0.00000000E+00 0.40233663E-01 0.00000000E+00
 4  3 0.00000000E+00 0.74622236E-01 0.00000000E+00 0.00000000E+00 0.78182740E-01
 4  4 0.00000000E+00 0.00000000E+00-0.42256727E-02 0.10357587E-01 0.10357587E-01
 4  5 0.15675151E-02 0.00000000E+00 0.00000000E+00 0.00000000E+00 0.57823115E-02
 4  6 0.57823114E-02-0.87909570E-02 0.00000000E+00 0.00000000E+00 0.00000000E+00
 4  7 0.69054725E-01 0.11370727E+00 0.93155354E-01-0.16463263E+00-0.46614724E+00
 4  8-0.23480229E+00 0.00000000E+00 0.00000000E+00 0.40233663E-01 0.00000000E+00
 4  9 0.00000000E+00 0.74622236E-01 0.00000000E+00 0.00000000E+00 0.78182740E-01
 4 10 0.00000000E+00 0.00000000E+00-0.42256727E-02-0.10357587E-01-0.10357587E-01
 4 11-0.15675151E-02 0.00000000E+00 0.00000000E+00 0.00000000E+00-0.57823115E-02
 4 12-0.57823114E-02 0.87909570E-02 0.00000000E+00 0.00000000E+00 0.00000000E+00
 5  1-0.25320797E-01-0.41493157E-01-0.37422007E-01 0.73329874E-01 0.15951060E+00
 5  2 0.16755804E+00 0.00000000E+00 0.00000000E+00 0.12876708E+00 0.00000000E+00
 5  3 0.00000000E+00 0.25314253E+00 0.00000000E+00 0.00000000E+00 0.27872403E+00
 5  4 0.00000000E+00 0.00000000E+00 0.68148993E-01 0.72137280E-02 0.72137280E-02
 5  5-0.14257935E-01 0.00000000E+00 0.00000000E+00 0.00000000E+00 0.11178907E-01
 5  6 0.11178907E-01-0.12911578E-01 0.00000000E+00 0.00000000E+00 0.00000000E+00
 5  7-0.25320797E-01-0.41493157E-01-0.37422007E-01 0.73329874E-01 0.15951060E+00
 5  8 0.16755804E+00 0.00000000E+00 0.00000000E+00-0.12876708E+00 0.00000000E+00
 5  9 0.00000000E+00-0.25314253E+00 0.00000000E+00 0.00000000E+00-0.27872403E+00
 5 10 0.00000000E+00 0.00000000E+00-0.68148993E-01 0.72137280E-02 0.72137280E-02
 5 11-0.14257935E-01 0.00000000E+00 0.00000000E+00 0.00000000E+00 0.11178907E-01
 5 12 0.11178907E-01-0.12911578E-01 0.00000000E+00 0.00000000E+00 0.00000000E+00
 6  1 0.00000000E+00 0.00000000E+00 0.00000000E+00 0.00000000E+00 0.00000000E+00
 6  2 0.00000000E+00-0.13005225E+00 0.13404106E-15 0.00000000E+00-0.24167079E+00
 6  3-0.37683817E-16 0.00000000E+00-0.31174832E+00 0.11158704E-15 0.00000000E+00
 6  4-0.93225749E-01-0.13028234E-15 0.00000000E+00 0.00000000E+00 0.00000000E+00
 6  5 0.00000000E+00 0.00000000E+00 0.10005694E-01-0.81007654E-16 0.00000000E+00
 6  6 0.00000000E+00 0.00000000E+00 0.00000000E+00 0.30729465E-01 0.15379638E-15
 6  7 0.00000000E+00 0.00000000E+00 0.00000000E+00 0.00000000E+00 0.00000000E+00
 6  8 0.00000000E+00-0.13005225E+00 0.13404241E-15 0.00000000E+00-0.24167079E+00
 6  9-0.37684267E-16 0.00000000E+00-0.31174832E+00 0.11158323E-15 0.00000000E+00
 6 10-0.93225749E-01-0.13025743E-15 0.00000000E+00 0.00000000E+00 0.00000000E+00
 6 11 0.00000000E+00 0.00000000E+00-0.10005694E-01 0.81000057E-16 0.00000000E+00
 6 12 0.00000000E+00 0.00000000E+00 0.00000000E+00-0.30729465E-01-0.15377896E-15
 7  1 0.00000000E+00 0.00000000E+00 0.00000000E+00 0.00000000E+00 0.00000000E+00
 7  2 0.00000000E+00-0.28952782E-16-0.13005225E+00 0.00000000E+00 0.79812356E-16
 7  3-0.24167078E+00 0.00000000E+00 0.57175450E-15-0.31174832E+00 0.00000000E+00
 7  4-0.59912575E-15-0.93225751E-01 0.00000000E+00 0.00000000E+00 0.00000000E+00
 7  5 0.00000000E+00 0.00000000E+00 0.11131339E-16 0.10005694E-01 0.00000000E+00
 7  6 0.00000000E+00 0.00000000E+00 0.00000000E+00 0.39860405E-15 0.30729466E-01
 7  7 0.00000000E+00 0.00000000E+00 0.00000000E+00 0.00000000E+00 0.00000000E+00
 7  8 0.00000000E+00-0.28953452E-16-0.13005225E+00 0.00000000E+00 0.79817494E-16
 7  9-0.24167078E+00 0.00000000E+00 0.57174774E-15-0.31174832E+00 0.00000000E+00
 7 10-0.59912822E-15-0.93225751E-01 0.00000000E+00 0.00000000E+00 0.00000000E+00
 7 11 0.00000000E+00 0.00000000E+00-0.11127329E-16-0.10005694E-01 0.00000000E+00
 7 12 0.00000000E+00 0.00000000E+00 0.00000000E+00-0.39860984E-15-0.30729466E-01
 8  1 0.00000000E+00 0.00000000E+00 0.00000000E+00 0.00000000E+00 0.00000000E+00
 8  2 0.00000000E+00 0.15492815E+00-0.88463644E-16 0.00000000E+00 0.29326727E+00
 8  3-0.23714216E-16 0.00000000E+00 0.37484790E+00-0.10967651E-15 0.00000000E+00
 8  4 0.15828975E+00 0.95857204E-15 0.00000000E+00 0.00000000E+00 0.00000000E+00
 8  5 0.00000000E+00 0.00000000E+00 0.47812506E-02-0.18460516E-15 0.00000000E+00
 8  6 0.00000000E+00 0.00000000E+00 0.00000000E+00 0.54912346E-02-0.38494084E-15
 8  7 0.00000000E+00 0.00000000E+00 0.00000000E+00 0.00000000E+00 0.00000000E+00
 8  8 0.00000000E+00-0.15492815E+00 0.88469046E-16 0.00000000E+00-0.29326727E+00
 8  9 0.23707498E-16 0.00000000E+00-0.37484790E+00 0.10968639E-15 0.00000000E+00
 8 10-0.15828975E+00-0.95858101E-15 0.00000000E+00 0.00000000E+00 0.00000000E+00
 8 11 0.00000000E+00 0.00000000E+00 0.47812506E-02-0.18460298E-15 0.00000000E+00
 8 12 0.00000000E+00 0.00000000E+00 0.00000000E+00 0.54912346E-02-0.38494055E-15
 9  1 0.00000000E+00 0.00000000E+00 0.00000000E+00 0.00000000E+00 0.00000000E+00
 9  2 0.00000000E+00 0.35270704E-16 0.15492815E+00 0.00000000E+00 0.61441668E-17
 9  3 0.29326727E+00 0.00000000E+00 0.38070048E-15 0.37484790E+00 0.00000000E+00
 9  4-0.11002337E-14 0.15828975E+00 0.00000000E+00 0.00000000E+00 0.00000000E+00
 9  5 0.00000000E+00 0.00000000E+00-0.30029630E-15 0.47812513E-02 0.00000000E+00
 9  6 0.00000000E+00 0.00000000E+00 0.00000000E+00 0.17784037E-15 0.54912355E-02
 9  7 0.00000000E+00 0.00000000E+00 0.00000000E+00 0.00000000E+00 0.00000000E+00
 9  8 0.00000000E+00-0.35290208E-16-0.15492815E+00 0.00000000E+00-0.61331593E-17
 9  9-0.29326727E+00 0.00000000E+00-0.38070232E-15-0.37484790E+00 0.00000000E+00
 9 10 0.11002386E-14-0.15828975E+00 0.00000000E+00 0.00000000E+00 0.00000000E+00
 9 11 0.00000000E+00 0.00000000E+00-0.30029412E-15 0.47812513E-02 0.00000000E+00
 9 12 0.00000000E+00 0.00000000E+00 0.00000000E+00 0.17783602E-15 0.54912355E-02
10  1-0.35228360E-01-0.59489032E-01-0.48999997E-01 0.10640229E+00 0.32783088E+00
10  2 0.15503865E+00 0.00000000E+00 0.00000000E+00-0.19523134E+00 0.00000000E+00
10  3 0.00000000E+00-0.40138590E+00 0.00000000E+00 0.00000000E+00-0.40807849E+00
10  4 0.00000000E+00 0.00000000E+00-0.61128714E-01 0.15704718E-01 0.15704718E-01
10  5-0.12741833E-01 0.00000000E+00 0.00000000E+00 0.00000000E+00 0.11996061E-01
10  6 0.11996060E-01-0.17350954E-01 0.00000000E+00 0.00000000E+00 0.00000000E+00
10  7 0.35228360E-01 0.59489032E-01 0.48999997E-01-0.10640229E+00-0.32783088E+00
10  8-0.15503865E+00 0.00000000E+00 0.00000000E+00-0.19523134E+00 0.00000000E+00
10  9 0.00000000E+00-0.40138590E+00 0.00000000E+00 0.00000000E+00-0.40807849E+00
10 10 0.00000000E+00 0.00000000E+00-0.61128714E-01-0.15704718E-01-0.15704718E-01
10 11 0.12741833E-01 0.00000000E+00 0.00000000E+00 0.00000000E+00-0.11996061E-01
10 12-0.11996060E-01 0.17350954E-01 0.00000000E+00 0.00000000E+00 0.00000000E+00
 $END
