! Bench 8
!
! Stannobenzene GVB-PP(3)/3-21G*//RHF/3-21G* calculation.
! The three pi orbital pairs are correlated with pi*'s.
! There are a total of 96 AOs.
!
! The RHF/3-21G* geometry is taken from K.K.Baldridge and
! M.S.Gordon, J.Am.Chem.Soc., 110, 4204-4208(1988).
!
! The FINAL GVB energy is -6188.4610434479 after 23 ITERATIONS
!
! The pair overlaps are 0.86479, 0.77817, and 0.77170.
!
! Caution - this calculation is subject to symmetry breaking!
! The wavefunction can converge to Kekule (localized) orbitals.
! These orbitals will be symmetric with respect to the molecular
! plane, but not the sigma-yz plane, that is they will have
! only Cs symmetry.
!
 $CONTRL SCFTYP=GVB  RUNTYP=ENERGY  MAXIT=60  NZVAR=30 $END
 $SYSTEM TIMLIM=4000 MEMORY=700000 $END
 $BASIS  GBASIS=N21 NGAUSS=3 NDFUNC=1 $END
! Reorder the RHF orbitals to line up the three pi pairs.
! Be fairly ruthless in symmetrizing the orbitals for C2v.
 $GUESS 
   GUESS=MOREAD NORB=52  NORDER=1
   IORDER(39)=40,41, 39,52, 42,46, 43,44, 45,47,48,49,50,51 
   TOLZ=1.0D-06 TOLE=5.0D-05
 $END
 $SCF NCO=40 NPAIR=3 $END
 $ZMAT  IZMAT(1)=1,1,3,   1,1,2,   1,3,5,   1,2,4,   1,5,6,   1,4,6,
                 1,1,7,   1,2,8,   1,3,9,   1,4,10,  1,5,11,  1,6,12,
                 2,2,1,3,   2,3,5,6,   2,2,4,6,
                 3,2,1,3,5,   3,1,2,4,6,   3,3,5,6,4,
                 2,7,1,3,   2,5,6,12,   2,1,3,9,   2,1,2,8,   2,3,5,11,
                 2,2,4,10,   3,4,2,1,7,   3,3,1,2,8,   3,2,1,3,9,
                 3,1,3,5,11,   3,1,2,4,10,   3,3,5,6,12  $END
 $DATA
STANNOBENZENE...AT THE RHF/3-21G* GEOMETRY
CNV      2

TIN        50.0   0.0000000000   0.0000000000   1.5888995852
CARBON      6.0   1.5862112510   0.0000000000   0.2929400888
CARBON      6.0   1.2581044950   0.0000000000  -1.0526055582
CARBON      6.0   0.0000000000   0.0000000000  -1.6544624501
HYDROGEN    1.0   0.0000000000   0.0000000000   3.3120498683
HYDROGEN    1.0   2.6242638326   0.0000000000   0.5637373332
HYDROGEN    1.0   2.0853437319   0.0000000000  -1.7441222262
HYDROGEN    1.0   0.0000000000   0.0000000000  -2.7280055811
 $END
! RHF ORBITALS
 $VEC
 1  1 9.73507737E-01 1.07909075E-01-0.00000000E+00-0.00000000E+00 6.28502589E-07
 1  2 2.27748080E-01-0.00000000E+00-0.00000000E+00 1.25232194E-06-1.21321642E-01
 1  3-1.21300792E-01-1.21327802E-01-0.00000000E+00-0.00000000E+00-0.00000000E+00
 1  4 7.27884718E-02-0.00000000E+00-0.00000000E+00 2.91449629E-06-3.52093515E-02
 1  5-3.52856291E-02-3.51877707E-02-0.00000000E+00-0.00000000E+00-0.00000000E+00
 1  6 3.47709568E-02-0.00000000E+00-0.00000000E+00-2.19189623E-04 9.57284888E-03
 1  7-0.00000000E+00-0.00000000E+00-1.25803423E-04-1.04508214E-02-1.01361574E-02
 1  8-1.03969559E-02-0.00000000E+00-0.00000000E+00-0.00000000E+00 4.05930129E-05
 1  9 1.04223037E-04-3.27430319E-05-0.00000000E+00-1.08862480E-04-1.76802454E-04
 1 10-9.42734532E-04-0.00000000E+00 6.50409666E-04 4.05930129E-05 1.04223037E-04
 1 11 3.27430319E-05-0.00000000E+00-1.08862480E-04-1.76802454E-04 9.42734532E-04
 1 12-0.00000000E+00 6.50409666E-04-2.73171768E-05-1.16151056E-04-6.57703169E-05
 1 13-0.00000000E+00-3.82274229E-05 1.21256966E-03 1.34134259E-03-0.00000000E+00
 1 14 9.02908042E-04-2.73171768E-05-1.16151056E-04 6.57703169E-05-0.00000000E+00
 1 15-3.82274229E-05 1.21256966E-03-1.34134259E-03-0.00000000E+00 9.02908042E-04
 1 16 2.76416383E-05 1.66047818E-04-0.00000000E+00-0.00000000E+00-2.10662001E-05
 1 17-1.98435459E-03-0.00000000E+00-0.00000000E+00-1.13602099E-03-8.53472591E-05
 1 18 4.15558735E-04-6.43964549E-05-7.94325588E-04-6.43964549E-05-7.94325588E-04
 1 19 1.47804477E-04 5.76434901E-04 1.47804477E-04 5.76434901E-04-3.04322555E-05
 1 20-2.09352144E-04
 2  1-3.41903939E-01 1.02956072E+00-0.00000000E+00-0.00000000E+00 3.23748535E-04
 2  2 1.25996478E-01-0.00000000E+00-0.00000000E+00 4.04887463E-05-3.58268903E-02
 2  3-3.58304328E-02-3.58228038E-02-0.00000000E+00-0.00000000E+00-0.00000000E+00
 2  4-5.66803425E-02-0.00000000E+00-0.00000000E+00-3.32415987E-05 2.62080800E-02
 2  5 2.62709133E-02 2.61919703E-02-0.00000000E+00-0.00000000E+00-0.00000000E+00
 2  6-2.53857971E-02-0.00000000E+00-0.00000000E+00 2.97383684E-04-6.22754021E-03
 2  7-0.00000000E+00-0.00000000E+00 3.43713862E-05 7.22978018E-03 7.03711968E-03
 2  8 7.19635850E-03-0.00000000E+00-0.00000000E+00-0.00000000E+00-2.92932950E-05
 2  9-7.75998744E-05 2.46027005E-06-0.00000000E+00 6.80201010E-05 1.91681471E-04
 2 10 8.60571218E-04-0.00000000E+00-4.40288500E-04-2.92932950E-05-7.75998744E-05
 2 11-2.46027005E-06-0.00000000E+00 6.80201010E-05 1.91681471E-04-8.60571218E-04
 2 12-0.00000000E+00-4.40288500E-04 2.34426043E-05 1.10789959E-04 5.70040997E-05
 2 13-0.00000000E+00 3.06268511E-05-1.04201336E-03-1.12999948E-03-0.00000000E+00
 2 14-7.06868451E-04 2.34426043E-05 1.10789959E-04-5.70040997E-05-0.00000000E+00
 2 15 3.06268511E-05-1.04201336E-03 1.12999948E-03-0.00000000E+00-7.06868451E-04
 2 16-2.24190178E-05-1.28797497E-04-0.00000000E+00-0.00000000E+00 1.39119667E-05
 2 17 1.64151596E-03-0.00000000E+00-0.00000000E+00 9.49491347E-04 6.78169568E-05
 2 18-2.99219647E-04 6.90301028E-05 6.03114222E-04 6.90301028E-05 6.03114222E-04
 2 19-1.17389506E-04-4.59095816E-04-1.17389506E-04-4.59095816E-04 2.58321888E-05
 2 20 1.87933978E-04
 3  1-0.00000000E+00-0.00000000E+00-0.00000000E+00 9.77639918E-01-0.00000000E+00
 3  2-0.00000000E+00-0.00000000E+00 5.70519310E-02-0.00000000E+00-0.00000000E+00
 3  3-0.00000000E+00-0.00000000E+00-0.00000000E+00-0.00000000E+00 1.85509013E-05
 3  4-0.00000000E+00-0.00000000E+00-1.48066768E-02-0.00000000E+00-0.00000000E+00
 3  5-0.00000000E+00-0.00000000E+00-0.00000000E+00-0.00000000E+00-4.58187516E-07
 3  6-0.00000000E+00-0.00000000E+00 5.67503969E-03-0.00000000E+00-0.00000000E+00
 3  7-0.00000000E+00-2.63842279E-03-0.00000000E+00-0.00000000E+00-0.00000000E+00
 3  8-0.00000000E+00-0.00000000E+00-0.00000000E+00-4.75166060E-05-0.00000000E+00
 3  9-0.00000000E+00-0.00000000E+00 7.96473374E-06-0.00000000E+00-0.00000000E+00
 3 10-0.00000000E+00-2.22297556E-04-0.00000000E+00-0.00000000E+00-0.00000000E+00
 3 11-0.00000000E+00 7.96473374E-06-0.00000000E+00-0.00000000E+00-0.00000000E+00
 3 12-2.22297556E-04-0.00000000E+00-0.00000000E+00-0.00000000E+00-0.00000000E+00
 3 13-6.26287897E-05-0.00000000E+00-0.00000000E+00-0.00000000E+00 3.19656555E-04
 3 14-0.00000000E+00-0.00000000E+00-0.00000000E+00-0.00000000E+00-6.26287897E-05
 3 15-0.00000000E+00-0.00000000E+00-0.00000000E+00 3.19656555E-04-0.00000000E+00
 3 16-0.00000000E+00-0.00000000E+00-0.00000000E+00-4.35951523E-06-0.00000000E+00
 3 17-0.00000000E+00-0.00000000E+00-1.03853564E-04-0.00000000E+00-0.00000000E+00
 3 18-0.00000000E+00-0.00000000E+00-0.00000000E+00-0.00000000E+00-0.00000000E+00
 3 19-0.00000000E+00-0.00000000E+00-0.00000000E+00-0.00000000E+00-0.00000000E+00
 3 20-0.00000000E+00
 4  1-0.00000000E+00-0.00000000E+00 9.77557393E-01-0.00000000E+00-0.00000000E+00
 4  2-0.00000000E+00 5.73776680E-02-0.00000000E+00-0.00000000E+00-0.00000000E+00
 4  3-0.00000000E+00-0.00000000E+00-0.00000000E+00-3.81973952E-05-0.00000000E+00
 4  4-0.00000000E+00-1.57030055E-02-0.00000000E+00-0.00000000E+00-0.00000000E+00
 4  5-0.00000000E+00-0.00000000E+00-0.00000000E+00 2.28607470E-04-0.00000000E+00
 4  6-0.00000000E+00 1.00528676E-02-0.00000000E+00-0.00000000E+00-0.00000000E+00
 4  7-5.89270067E-04-0.00000000E+00-0.00000000E+00-0.00000000E+00-0.00000000E+00
 4  8-0.00000000E+00-0.00000000E+00-4.09563377E-03-0.00000000E+00-1.70666588E-04
 4  9-9.53781069E-04-7.95345177E-05-0.00000000E+00-3.08485590E-05 3.69170406E-03
 4 10 4.24034909E-03-0.00000000E+00 3.10784030E-03 1.70666588E-04 9.53781069E-04
 4 11-7.95345177E-05-0.00000000E+00 3.08485590E-05-3.69170406E-03 4.24034909E-03
 4 12-0.00000000E+00-3.10784030E-03 4.02624885E-05 2.57682667E-04 3.28202093E-04
 4 13-0.00000000E+00-1.29927224E-04-1.56753150E-03-3.73251092E-03-0.00000000E+00
 4 14 7.65476865E-04-4.02624885E-05-2.57682667E-04 3.28202093E-04-0.00000000E+00
 4 15 1.29927224E-04 1.56753150E-03-3.73251092E-03-0.00000000E+00-7.65476865E-04
 4 16-0.00000000E+00-0.00000000E+00-1.76678160E-04-0.00000000E+00-0.00000000E+00
 4 17-0.00000000E+00-2.92472159E-03-0.00000000E+00-0.00000000E+00-0.00000000E+00
 4 18-0.00000000E+00 1.98837120E-04 5.46427490E-04-1.98837120E-04-5.46427490E-04
 4 19-2.41971461E-04-7.61705350E-04 2.41971461E-04 7.61705350E-04-0.00000000E+00
 4 20-0.00000000E+00
 5  1 1.11200040E-04-4.21060875E-04-0.00000000E+00-0.00000000E+00 9.77560356E-01
 5  2-3.20327562E-04-0.00000000E+00-0.00000000E+00 5.73660892E-02 4.83802592E-05
 5  3 2.56250724E-05 6.51189187E-05-0.00000000E+00-0.00000000E+00-0.00000000E+00
 5  4 2.29856149E-04-0.00000000E+00-0.00000000E+00-1.56733715E-02-7.32459413E-04
 5  5-6.65927947E-04-7.01252439E-04-0.00000000E+00-0.00000000E+00-0.00000000E+00
 5  6-1.11313568E-03-0.00000000E+00-0.00000000E+00 9.93291716E-03 1.84505157E-03
 5  7-0.00000000E+00-0.00000000E+00-1.46638631E-03-3.21567729E-03-9.63021101E-04
 5  8-3.50927982E-03-0.00000000E+00-0.00000000E+00-0.00000000E+00-1.80586478E-04
 5  9-1.07926738E-03-4.81053169E-04-0.00000000E+00 3.84344502E-05 4.95798311E-03
 5 10 6.31705991E-03-0.00000000E+00-3.43283129E-04-1.80586478E-04-1.07926738E-03
 5 11 4.81053169E-04-0.00000000E+00 3.84344502E-05 4.95798311E-03-6.31705991E-03
 5 12-0.00000000E+00-3.43283129E-04 8.99369631E-05 4.65062313E-04 3.47908423E-05
 5 13-0.00000000E+00-1.68897423E-04-5.41203109E-03-3.51733559E-03-0.00000000E+00
 5 14-2.02964638E-03 8.99369631E-05 4.65062313E-04-3.47908423E-05-0.00000000E+00
 5 15-1.68897423E-04-5.41203109E-03 3.51733559E-03-0.00000000E+00-2.02964638E-03
 5 16-7.90422835E-05-4.08807912E-04-0.00000000E+00-0.00000000E+00-1.41718624E-04
 5 17 5.34278374E-03-0.00000000E+00-0.00000000E+00 3.76801743E-03-6.11876291E-04
 5 18-1.68315807E-04 3.98977580E-04 2.23790885E-03 3.98977580E-04 2.23790885E-03
 5 19-2.60913052E-04-8.11135870E-04-2.60913052E-04-8.11135870E-04 1.41043137E-04
 5 20 1.06882191E-03
 6  1 1.48795606E-01-5.35377753E-01-0.00000000E+00-0.00000000E+00-7.97098185E-04
 6  2 1.11123888E+00-0.00000000E+00-0.00000000E+00 1.81818456E-03-1.44300695E-02
 6  3-1.41455427E-02-1.44155299E-02-0.00000000E+00-0.00000000E+00-0.00000000E+00
 6  4 1.16592766E-01-0.00000000E+00-0.00000000E+00 9.85146570E-05-3.45024182E-02
 6  5-3.44013688E-02-3.45198940E-02-0.00000000E+00-0.00000000E+00-0.00000000E+00
 6  6 2.24932028E-02-0.00000000E+00-0.00000000E+00 4.87691443E-05 1.65079933E-03
 6  7-0.00000000E+00-0.00000000E+00-1.97155696E-05-3.78472662E-03-3.82890697E-03
 6  8-3.70166172E-03-0.00000000E+00-0.00000000E+00-0.00000000E+00-8.84509293E-06
 6  9-1.36547792E-04-1.17492303E-04-0.00000000E+00-1.06577107E-04 2.51272280E-04
 6 10 1.75917006E-04-0.00000000E+00-9.67167081E-06-8.84509293E-06-1.36547792E-04
 6 11 1.17492303E-04-0.00000000E+00-1.06577107E-04 2.51272280E-04-1.75917006E-04
 6 12-0.00000000E+00-9.67167081E-06 7.94809243E-06 7.77970483E-05 3.86322551E-05
 6 13-0.00000000E+00 6.09382651E-05-3.02954560E-04-2.96358548E-04-0.00000000E+00
 6 14-2.23885954E-04 7.94809243E-06 7.77970483E-05-3.86322551E-05-0.00000000E+00
 6 15 6.09382651E-05-3.02954560E-04 2.96358548E-04-0.00000000E+00-2.23885954E-04
 6 16-8.39480473E-06-3.17404570E-05-0.00000000E+00-0.00000000E+00 1.89001074E-05
 6 17 3.92521395E-04-0.00000000E+00-0.00000000E+00 3.27298617E-04-1.39332863E-04
 6 18 5.18510957E-05 3.73654021E-05 1.74482027E-05 3.73654021E-05 1.74482027E-05
 6 19-1.71001273E-05-1.58441774E-04-1.71001273E-05-1.58441774E-04 2.66203763E-05
 6 20 8.03921592E-05
 7  1-0.00000000E+00-0.00000000E+00-0.00000000E+00-4.62407545E-01-0.00000000E+00
 7  2-0.00000000E+00-0.00000000E+00 1.06552562E+00-0.00000000E+00-0.00000000E+00
 7  3-0.00000000E+00-0.00000000E+00-0.00000000E+00-0.00000000E+00 6.80366646E-04
 7  4-0.00000000E+00-0.00000000E+00 3.48366514E-02-0.00000000E+00-0.00000000E+00
 7  5-0.00000000E+00-0.00000000E+00-0.00000000E+00-0.00000000E+00 9.58750203E-05
 7  6-0.00000000E+00-0.00000000E+00-6.56777059E-03-0.00000000E+00-0.00000000E+00
 7  7-0.00000000E+00 2.86812817E-03-0.00000000E+00-0.00000000E+00-0.00000000E+00
 7  8-0.00000000E+00-0.00000000E+00-0.00000000E+00 2.78800106E-05-0.00000000E+00
 7  9-0.00000000E+00-0.00000000E+00 3.46998853E-06-0.00000000E+00-0.00000000E+00
 7 10-0.00000000E+00 2.23893799E-04-0.00000000E+00-0.00000000E+00-0.00000000E+00
 7 11-0.00000000E+00 3.46998853E-06-0.00000000E+00-0.00000000E+00-0.00000000E+00
 7 12 2.23893799E-04-0.00000000E+00-0.00000000E+00-0.00000000E+00-0.00000000E+00
 7 13 6.15566125E-05-0.00000000E+00-0.00000000E+00-0.00000000E+00-3.27880512E-04
 7 14-0.00000000E+00-0.00000000E+00-0.00000000E+00-0.00000000E+00 6.15566125E-05
 7 15-0.00000000E+00-0.00000000E+00-0.00000000E+00-3.27880512E-04-0.00000000E+00
 7 16-0.00000000E+00-0.00000000E+00-0.00000000E+00 4.69947464E-06-0.00000000E+00
 7 17-0.00000000E+00-0.00000000E+00 1.02302558E-04-0.00000000E+00-0.00000000E+00
 7 18-0.00000000E+00-0.00000000E+00-0.00000000E+00-0.00000000E+00-0.00000000E+00
 7 19-0.00000000E+00-0.00000000E+00-0.00000000E+00-0.00000000E+00-0.00000000E+00
 7 20-0.00000000E+00
 8  1 0.00000000E+00 0.00000000E+00-4.62322726E-01 0.00000000E+00 0.00000000E+00
 8  2 0.00000000E+00 1.06522163E+00 0.00000000E+00 0.00000000E+00 0.00000000E+00
 8  3 0.00000000E+00 0.00000000E+00 0.00000000E+00 7.44631190E-04 0.00000000E+00
 8  4 0.00000000E+00 3.56705444E-02 0.00000000E+00 0.00000000E+00 0.00000000E+00
 8  5 0.00000000E+00 0.00000000E+00 0.00000000E+00-1.21381406E-04 0.00000000E+00
 8  6 0.00000000E+00-1.07147593E-02 0.00000000E+00 0.00000000E+00 0.00000000E+00
 8  7 9.25176058E-04 0.00000000E+00 0.00000000E+00 0.00000000E+00 0.00000000E+00
 8  8 0.00000000E+00 0.00000000E+00 3.89096623E-03 0.00000000E+00 1.59734740E-04
 8  9 8.00158017E-04 8.53278291E-08 0.00000000E+00-1.80327306E-05-3.43806534E-03
 8 10-3.79189113E-03 0.00000000E+00-3.02024600E-03-1.59734740E-04-8.00158017E-04
 8 11 8.53278291E-08 0.00000000E+00 1.80327306E-05 3.43806534E-03-3.79189113E-03
 8 12 0.00000000E+00 3.02024600E-03-3.58636495E-05-2.13898621E-04-2.77958122E-04
 8 13 0.00000000E+00 1.28250797E-04 1.36874704E-03 3.35073284E-03 0.00000000E+00
 8 14-8.47616011E-04 3.58636495E-05 2.13898621E-04-2.77958122E-04 0.00000000E+00
 8 15-1.28250797E-04-1.36874704E-03 3.35073284E-03 0.00000000E+00 8.47616011E-04
 8 16 0.00000000E+00 0.00000000E+00 1.46545040E-04 0.00000000E+00 0.00000000E+00
 8 17 0.00000000E+00 2.74385485E-03 0.00000000E+00 0.00000000E+00 0.00000000E+00
 8 18 0.00000000E+00-1.62797199E-04-3.51987864E-04 1.62797199E-04 3.51987864E-04
 8 19 2.05505075E-04 6.33704296E-04-2.05505075E-04-6.33704296E-04 0.00000000E+00
 8 20 0.00000000E+00
 9  1-2.53697728E-04 9.97722139E-04 0.00000000E+00 0.00000000E+00-4.62323254E-01
 9  2-1.67327374E-03 0.00000000E+00 0.00000000E+00 1.06522577E+00-4.17739366E-04
 9  3-4.01149922E-04 7.60895382E-04 0.00000000E+00 0.00000000E+00 0.00000000E+00
 9  4-2.65824630E-04 0.00000000E+00 0.00000000E+00 3.56492297E-02 6.54558490E-04
 9  5 5.99197460E-04 7.36891557E-04 0.00000000E+00 0.00000000E+00 0.00000000E+00
 9  6 9.53589551E-04 0.00000000E+00 0.00000000E+00-1.05419566E-02-1.82486859E-03
 9  7 0.00000000E+00 0.00000000E+00 1.75538083E-03 3.12449712E-03 9.45739956E-04
 9  8 3.25462896E-03 0.00000000E+00 0.00000000E+00 0.00000000E+00 1.67386064E-04
 9  9 9.05079746E-04 3.72884954E-04 0.00000000E+00-8.05812223E-05-4.43999457E-03
 9 10-5.68252540E-03 0.00000000E+00 2.38925476E-04 1.67386064E-04 9.05079746E-04
 9 11-3.72884954E-04 0.00000000E+00-8.05812223E-05-4.43999457E-03 5.68252540E-03
 9 12 0.00000000E+00 2.38925476E-04-7.76888167E-05-3.74747216E-04-3.64335750E-06
 9 13 0.00000000E+00 1.92051720E-04 4.71795095E-03 2.92709172E-03 0.00000000E+00
 9 14 1.66275315E-03-7.76888167E-05-3.74747216E-04 3.64335750E-06 0.00000000E+00
 9 15 1.92051720E-04 4.71795095E-03-2.92709172E-03 0.00000000E+00 1.66275315E-03
 9 16 6.50900121E-05 3.23518670E-04 0.00000000E+00 0.00000000E+00 1.40754902E-04
 9 17-4.43073811E-03 0.00000000E+00 0.00000000E+00-3.16812727E-03 6.80039849E-04
 9 18 1.53630595E-04-3.46376448E-04-2.01061592E-03-3.46376448E-04-2.01061592E-03
 9 19 2.07531124E-04 6.07541502E-04 2.07531124E-04 6.07541502E-04-1.13148909E-04
 9 20-9.29576811E-04
10  1-4.13472256E-05-1.80721727E-04 0.00000000E+00 0.00000000E+00-2.25107066E-04
10  2-1.04240764E-03 0.00000000E+00 0.00000000E+00 5.93734512E-04-4.47125171E-01
10  3 9.78180459E-01-5.30911098E-01 0.00000000E+00 0.00000000E+00 0.00000000E+00
10  4-6.46578827E-03 0.00000000E+00 0.00000000E+00-3.78787954E-04-2.63937191E-02
10  5 6.62593901E-02-3.30192753E-02 0.00000000E+00 0.00000000E+00 0.00000000E+00
10  6-1.06220441E-02 0.00000000E+00 0.00000000E+00 4.14178726E-03 1.50876322E-02
10  7 0.00000000E+00 0.00000000E+00-5.84245925E-03 8.07831203E-03-1.95734182E-02
10  8 1.44086105E-02 0.00000000E+00 0.00000000E+00 0.00000000E+00-1.03694247E-04
10  9-9.49644309E-04-1.07890268E-03 0.00000000E+00-7.63265078E-04 2.10326427E-03
10 10 4.96581399E-03 0.00000000E+00-4.38846569E-03-1.03694247E-04-9.49644309E-04
10 11 1.07890268E-03 0.00000000E+00-7.63265078E-04 2.10326427E-03-4.96581399E-03
10 12 0.00000000E+00-4.38846569E-03 4.44265821E-04 2.92735902E-03 1.00600923E-03
10 13 0.00000000E+00 1.12838954E-03-1.43616945E-02-1.11769102E-02 0.00000000E+00
10 14-9.50911157E-03 4.44265821E-04 2.92735902E-03-1.00600923E-03 0.00000000E+00
10 15 1.12838954E-03-1.43616945E-02 1.11769102E-02 0.00000000E+00-9.50911157E-03
10 16-1.25803275E-04-2.57119218E-04 0.00000000E+00 0.00000000E+00 5.55986278E-04
10 17 1.32660839E-02 0.00000000E+00 0.00000000E+00 9.13695469E-03-1.31296360E-03
10 18-5.62621299E-03 1.11023052E-03 3.33847453E-04 1.11023052E-03 3.33847453E-04
10 19-8.25317369E-04-5.35078873E-03-8.25317369E-04-5.35078873E-03 5.49407627E-04
10 20 1.75215847E-03
11  1 0.00000000E+00 0.00000000E+00 0.00000000E+00 0.00000000E+00 0.00000000E+00
11  2 0.00000000E+00 0.00000000E+00 0.00000000E+00 0.00000000E+00 0.00000000E+00
11  3 0.00000000E+00 0.00000000E+00 9.79616441E-01 0.00000000E+00 0.00000000E+00
11  4 0.00000000E+00 0.00000000E+00 0.00000000E+00 0.00000000E+00 0.00000000E+00
11  5 0.00000000E+00 0.00000000E+00 6.31051118E-02 0.00000000E+00 0.00000000E+00
11  6 0.00000000E+00 0.00000000E+00 0.00000000E+00 0.00000000E+00 0.00000000E+00
11  7 0.00000000E+00 0.00000000E+00 0.00000000E+00 0.00000000E+00 0.00000000E+00
11  8 0.00000000E+00-1.72059651E-02 0.00000000E+00 0.00000000E+00 0.00000000E+00
11  9 0.00000000E+00 0.00000000E+00 4.17679748E-04 0.00000000E+00 0.00000000E+00
11 10 0.00000000E+00-4.18314917E-03 0.00000000E+00 0.00000000E+00 0.00000000E+00
11 11 0.00000000E+00-4.17679748E-04 0.00000000E+00 0.00000000E+00 0.00000000E+00
11 12 4.18314917E-03 0.00000000E+00 0.00000000E+00 0.00000000E+00 0.00000000E+00
11 13-1.00718358E-04 0.00000000E+00 0.00000000E+00 0.00000000E+00 1.30644047E-03
11 14 0.00000000E+00 0.00000000E+00 0.00000000E+00 0.00000000E+00 1.00718358E-04
11 15 0.00000000E+00 0.00000000E+00 0.00000000E+00-1.30644047E-03 0.00000000E+00
11 16 0.00000000E+00 0.00000000E+00 0.00000000E+00 0.00000000E+00 0.00000000E+00
11 17 0.00000000E+00 0.00000000E+00 0.00000000E+00 0.00000000E+00 0.00000000E+00
11 18 0.00000000E+00 0.00000000E+00 0.00000000E+00 0.00000000E+00 0.00000000E+00
11 19 0.00000000E+00 0.00000000E+00 0.00000000E+00 0.00000000E+00 0.00000000E+00
11 20 0.00000000E+00
12  1-0.00000000E+00-0.00000000E+00-0.00000000E+00 3.22452376E-04-0.00000000E+00
12  2-0.00000000E+00-0.00000000E+00-7.96121497E-04-0.00000000E+00-0.00000000E+00
12  3-0.00000000E+00-0.00000000E+00-0.00000000E+00-0.00000000E+00 9.79653202E-01
12  4-0.00000000E+00-0.00000000E+00 3.77329780E-05-0.00000000E+00-0.00000000E+00
12  5-0.00000000E+00-0.00000000E+00-0.00000000E+00-0.00000000E+00 6.29756988E-02
12  6-0.00000000E+00-0.00000000E+00-2.80876778E-04-0.00000000E+00-0.00000000E+00
12  7-0.00000000E+00 2.36697352E-03-0.00000000E+00-0.00000000E+00-0.00000000E+00
12  8-0.00000000E+00-0.00000000E+00-0.00000000E+00-1.64075224E-02-0.00000000E+00
12  9-0.00000000E+00-0.00000000E+00 3.16277376E-04-0.00000000E+00-0.00000000E+00
12 10-0.00000000E+00-3.15342962E-03-0.00000000E+00-0.00000000E+00-0.00000000E+00
12 11-0.00000000E+00 3.16277376E-04-0.00000000E+00-0.00000000E+00-0.00000000E+00
12 12-3.15342962E-03-0.00000000E+00-0.00000000E+00-0.00000000E+00-0.00000000E+00
12 13 3.83254563E-04-0.00000000E+00-0.00000000E+00-0.00000000E+00-1.31549028E-04
12 14-0.00000000E+00-0.00000000E+00-0.00000000E+00-0.00000000E+00 3.83254563E-04
12 15-0.00000000E+00-0.00000000E+00-0.00000000E+00-1.31549028E-04-0.00000000E+00
12 16-0.00000000E+00-0.00000000E+00-0.00000000E+00 3.62121909E-04-0.00000000E+00
12 17-0.00000000E+00-0.00000000E+00-8.38568651E-04-0.00000000E+00-0.00000000E+00
12 18-0.00000000E+00-0.00000000E+00-0.00000000E+00-0.00000000E+00-0.00000000E+00
12 19-0.00000000E+00-0.00000000E+00-0.00000000E+00-0.00000000E+00-0.00000000E+00
12 20-0.00000000E+00
13  1 2.64562506E-06-5.26290605E-05-0.00000000E+00-0.00000000E+00-2.81318083E-04
13  2-6.66815599E-05-0.00000000E+00-0.00000000E+00 6.53949722E-04 8.71053391E-01
13  3-4.87288771E-02-8.22302932E-01-0.00000000E+00-0.00000000E+00-0.00000000E+00
13  4-1.73468680E-03-0.00000000E+00-0.00000000E+00 2.04307328E-04 5.90480339E-02
13  5-1.66026799E-03-5.46291047E-02-0.00000000E+00-0.00000000E+00-0.00000000E+00
13  6-2.28536507E-03-0.00000000E+00-0.00000000E+00-8.44748079E-04 5.25081745E-03
13  7-0.00000000E+00-0.00000000E+00 2.81017419E-03-2.46844976E-02-8.12843589E-04
13  8 3.25012750E-02-0.00000000E+00-0.00000000E+00-0.00000000E+00 2.34598913E-04
13  9 1.56031818E-03 1.32128776E-03-0.00000000E+00-1.00763804E-03-7.26305020E-03
13 10-1.31296921E-02-0.00000000E+00 1.69108833E-02 2.34598913E-04 1.56031818E-03
13 11-1.32128776E-03-0.00000000E+00-1.00763804E-03-7.26305020E-03 1.31296921E-02
13 12-0.00000000E+00 1.69108833E-02-4.33620564E-05 2.54185157E-04 8.00307148E-04
13 13-0.00000000E+00 1.05777480E-03 1.57649802E-02-2.52911191E-03-0.00000000E+00
13 14 6.68933936E-03-4.33620564E-05 2.54185157E-04-8.00307148E-04-0.00000000E+00
13 15 1.05777480E-03 1.57649802E-02 2.52911191E-03-0.00000000E+00 6.68933936E-03
13 16 1.25231421E-04 9.59442388E-04-0.00000000E+00-0.00000000E+00 1.18002074E-03
13 17-1.48487849E-04-0.00000000E+00-0.00000000E+00-6.89851927E-03-2.69059661E-03
13 18-1.41278373E-02-2.05689386E-03-7.01824499E-03-2.05689386E-03-7.01824499E-03
13 19-4.36055479E-04-1.09730156E-03-4.36055479E-04-1.09730156E-03-6.95048894E-04
13 20-2.90121566E-03
14  1-0.00000000E+00-0.00000000E+00 2.06594474E-04-0.00000000E+00-0.00000000E+00
14  2-0.00000000E+00-3.67216321E-04-0.00000000E+00-0.00000000E+00-0.00000000E+00
14  3-0.00000000E+00-0.00000000E+00-0.00000000E+00 9.79213355E-01-0.00000000E+00
14  4-0.00000000E+00-1.07549022E-03-0.00000000E+00-0.00000000E+00-0.00000000E+00
14  5-0.00000000E+00-0.00000000E+00-0.00000000E+00 6.45060924E-02-0.00000000E+00
14  6-0.00000000E+00 2.59542988E-03-0.00000000E+00-0.00000000E+00-0.00000000E+00
14  7 1.08093102E-02-0.00000000E+00-0.00000000E+00-0.00000000E+00-0.00000000E+00
14  8-0.00000000E+00-0.00000000E+00-2.54390219E-02-0.00000000E+00-1.72813864E-04
14  9-3.97504550E-04 1.63785696E-03-0.00000000E+00 9.47892536E-04 1.25237222E-02
14 10 3.78448428E-04-0.00000000E+00 2.35220942E-03 1.72813864E-04 3.97504550E-04
14 11 1.63785696E-03-0.00000000E+00-9.47892536E-04-1.25237222E-02 3.78448428E-04
14 12-0.00000000E+00-2.35220942E-03-1.34234769E-04-1.10179179E-03-6.08356234E-04
14 13-0.00000000E+00-5.64476633E-04 1.88340629E-03 4.57322851E-03-0.00000000E+00
14 14 1.12688372E-03 1.34234769E-04 1.10179179E-03-6.08356234E-04-0.00000000E+00
14 15 5.64476633E-04-1.88340629E-03 4.57322851E-03-0.00000000E+00-1.12688372E-03
14 16-0.00000000E+00-0.00000000E+00 3.21317886E-04-0.00000000E+00-0.00000000E+00
14 17-0.00000000E+00 2.12934923E-03-0.00000000E+00-0.00000000E+00-0.00000000E+00
14 18-0.00000000E+00-1.22867681E-03 2.24549786E-04 1.22867681E-03-2.24549786E-04
14 19 3.65129182E-04 2.17388924E-03-3.65129182E-04-2.17388924E-03-0.00000000E+00
14 20-0.00000000E+00
15  1 0.00000000E+00 0.00000000E+00 3.73213447E-05 0.00000000E+00 0.00000000E+00
15  2 0.00000000E+00-1.41492726E-04 0.00000000E+00 0.00000000E+00 0.00000000E+00
15  3 0.00000000E+00 0.00000000E+00 0.00000000E+00-1.41528749E-04 0.00000000E+00
15  4 0.00000000E+00 4.09628365E-04 0.00000000E+00 0.00000000E+00 0.00000000E+00
15  5 0.00000000E+00 0.00000000E+00 0.00000000E+00 3.74286622E-04 0.00000000E+00
15  6 0.00000000E+00-2.88441391E-03 0.00000000E+00 0.00000000E+00 0.00000000E+00
15  7 2.22359474E-03 0.00000000E+00 0.00000000E+00 0.00000000E+00 0.00000000E+00
15  8 0.00000000E+00 0.00000000E+00 1.25464120E-03 0.00000000E+00 8.65159494E-03
15  9 3.24024858E-03 5.97353323E-04 0.00000000E+00-1.15674808E-03-1.63994867E-02
15 10-6.29366624E-03 0.00000000E+00 8.39471582E-03-8.65159494E-03-3.24024858E-03
15 11 5.97353323E-04 0.00000000E+00 1.15674808E-03 1.63994867E-02-6.29366624E-03
15 12 0.00000000E+00-8.39471582E-03-6.97912997E-01-6.96917883E-02-1.10271157E-03
15 13 0.00000000E+00-1.89511438E-04 5.52371104E-02 6.61384911E-03 0.00000000E+00
15 14 3.44878683E-03 6.97912997E-01 6.96917883E-02-1.10271157E-03 0.00000000E+00
15 15 1.89511438E-04-5.52371104E-02 6.61384911E-03 0.00000000E+00-3.44878683E-03
15 16 0.00000000E+00 0.00000000E+00-1.72162649E-03 0.00000000E+00 0.00000000E+00
15 17 0.00000000E+00 1.57842659E-02 0.00000000E+00 0.00000000E+00 0.00000000E+00
15 18 0.00000000E+00 6.07302115E-05-1.44625017E-03-6.07302115E-05 1.44625017E-03
15 19 9.65649514E-04-6.46503307E-03-9.65649514E-04 6.46503307E-03 0.00000000E+00
15 20 0.00000000E+00
16  1-1.62851275E-05-1.91938137E-04-0.00000000E+00-0.00000000E+00-3.85816611E-05
16  2-7.63624058E-04-0.00000000E+00-0.00000000E+00 1.49212340E-04 1.04591792E-04
16  3-2.30046703E-04 3.09866370E-04-0.00000000E+00-0.00000000E+00-0.00000000E+00
16  4-1.33182846E-03-0.00000000E+00-0.00000000E+00-4.72648415E-04-7.63429741E-04
16  5 1.59823527E-04-1.32551026E-03-0.00000000E+00-0.00000000E+00-0.00000000E+00
16  6-5.65135850E-03-0.00000000E+00-0.00000000E+00 4.72688311E-03 1.36205155E-02
16  7-0.00000000E+00-0.00000000E+00-8.28357967E-03-7.69844208E-04-4.83169194E-03
16  8-1.31634253E-03-0.00000000E+00-0.00000000E+00-0.00000000E+00-1.24826439E-03
16  9-1.59809326E-03-5.76348766E-04-0.00000000E+00 7.22995452E-04 1.74761681E-02
16 10 7.00928713E-03-0.00000000E+00-1.18058752E-02-1.24826439E-03-1.59809326E-03
16 11 5.76348766E-04-0.00000000E+00 7.22995452E-04 1.74761681E-02-7.00928713E-03
16 12-0.00000000E+00-1.18058752E-02 6.98191350E-01 7.06751471E-02-2.22693790E-04
16 13-0.00000000E+00 8.64237467E-04-6.68527892E-02-1.07704459E-02-0.00000000E+00
16 14-1.06191731E-02 6.98191350E-01 7.06751471E-02 2.22693790E-04-0.00000000E+00
16 15 8.64237467E-04-6.68527892E-02 1.07704459E-02-0.00000000E+00-1.06191731E-02
16 16-9.06432433E-03-5.88055076E-03-0.00000000E+00-0.00000000E+00-1.65403011E-03
16 17 3.96559064E-02-0.00000000E+00-0.00000000E+00 2.10886437E-02-6.76550292E-04
16 18 1.47997616E-03 1.30551295E-04 1.56240671E-03 1.30551295E-04 1.56240671E-03
16 19-1.33328868E-03 5.76452927E-03-1.33328868E-03 5.76452927E-03-8.97316353E-05
16 20 5.12976355E-03
17  1 1.67408743E-05 2.14387732E-05-0.00000000E+00-0.00000000E+00 1.25091776E-04
17  2 3.75555947E-04-0.00000000E+00-0.00000000E+00-4.81512300E-04-2.06848750E-04
17  3 1.11222707E-04 3.45280040E-05-0.00000000E+00-0.00000000E+00-0.00000000E+00
17  4 4.94384243E-04-0.00000000E+00-0.00000000E+00 1.48946709E-03 4.71917635E-04
17  5-4.09073204E-04-2.16352948E-04-0.00000000E+00-0.00000000E+00-0.00000000E+00
17  6 3.32187577E-03-0.00000000E+00-0.00000000E+00-1.12966142E-02 1.45526018E-02
17  7-0.00000000E+00-0.00000000E+00-1.40880773E-02 5.27337745E-03-2.67122785E-03
17  8 7.19175750E-03-0.00000000E+00-0.00000000E+00-0.00000000E+00 6.98401526E-01
17  9 7.20713103E-02 1.48498584E-03-0.00000000E+00-1.36823387E-04-6.21670430E-02
17 10-1.50428926E-02-0.00000000E+00 7.78617148E-03 6.98401526E-01 7.20713103E-02
17 11-1.48498584E-03-0.00000000E+00-1.36823387E-04-6.21670430E-02 1.50428926E-02
17 12-0.00000000E+00 7.78617148E-03 1.04198201E-03-1.84051308E-03 2.97650410E-04
17 13-0.00000000E+00-1.09203409E-03 2.52610812E-02 4.35420311E-03-0.00000000E+00
17 14 1.44793474E-02 1.04198201E-03-1.84051308E-03-2.97650410E-04-0.00000000E+00
17 15-1.09203409E-03 2.52610812E-02-4.35420311E-03-0.00000000E+00 1.44793474E-02
17 16 1.70867600E-03 1.46166645E-03-0.00000000E+00-0.00000000E+00-3.18214796E-04
17 17-1.21549294E-02-0.00000000E+00-0.00000000E+00-1.02059590E-02-8.52870508E-04
17 18 3.12127153E-03-1.47865143E-03 2.85342280E-03-1.47865143E-03 2.85342280E-03
17 19-2.74638615E-05 2.73980689E-03-2.74638615E-05 2.73980689E-03-6.15798256E-04
17 20-1.58215271E-03
18  1 0.00000000E+00 0.00000000E+00 9.58277922E-05 0.00000000E+00 0.00000000E+00
18  2 0.00000000E+00-3.73615786E-04 0.00000000E+00 0.00000000E+00 0.00000000E+00
18  3 0.00000000E+00 0.00000000E+00 0.00000000E+00-4.12195293E-05 0.00000000E+00
18  4 0.00000000E+00 1.21614328E-03 0.00000000E+00 0.00000000E+00 0.00000000E+00
18  5 0.00000000E+00 0.00000000E+00 0.00000000E+00 1.06738557E-04 0.00000000E+00
18  6 0.00000000E+00-1.03828522E-02 0.00000000E+00 0.00000000E+00 0.00000000E+00
18  7-9.83291073E-03 0.00000000E+00 0.00000000E+00 0.00000000E+00 0.00000000E+00
18  8 0.00000000E+00 0.00000000E+00 1.12217341E-02 0.00000000E+00 6.98116591E-01
18  9 7.01937511E-02 6.87139279E-04 0.00000000E+00 2.53621443E-05-5.58803596E-02
18 10-9.36587668E-03 0.00000000E+00 3.26949857E-03-6.98116591E-01-7.01937511E-02
18 11 6.87139279E-04 0.00000000E+00-2.53621443E-05 5.58803596E-02-9.36587668E-03