! Bench 2
!
! This is a MCSCF/6-31G** run on triplet silylene.
!
! This calculation comes from a study of SiH2 potential
! surfaces, and transition probabilities by S.Koseki
! and M.S.Gordon, J.Mol.Spectrosc. 1987, 123, 392-404.
!
! The FINAL energy is -290.0124281398 after 10 iterations.                      
!
 $CONTRL SCFTYP=MCSCF RUNTYP=ENERGY UNITS=BOHR MULT=3 NZVAR=3 $END
 $SYSTEM TIMLIM=600 MEMORY=200000 $END
 $BASIS  GBASIS=N31 NGAUSS=6 NDFUNC=1 NPFUNC=1 $END
 $GUESS GUESS=MOREAD NORB=29 $END
! Memory for integral transformation stage is limited to test multi-pass code
 $TRANS  NWORD=150000 $END 
 $DRT   GROUP=C2V FORS=.TRUE. NMCC=5 NDOC=2 NALP=2 NVAL=2 $END
 $MCSCF CISTEP=GUGA SOSCF=.T. $END
 $ZMAT  IZMAT(1)=1,1,2  IZMAT(4)=1,1,3  IZMAT(7)=2,3,1,2  $END
 $DATA
TRIPLET SILYLENE TEST CASE
CNV      2

SILICON    14.
HYDROGEN   1.0      0.0                 2.1230837178     1.9998482138
 $END
! MCSCF MOS
 $VEC
 1  1-0.99687640E+00-0.12415428E-01 0.00000000E+00 0.00000000E+00 0.23903832E-04
 1  2 0.16772042E-01 0.00000000E+00 0.00000000E+00-0.77663130E-04-0.19524922E-02
 1  3 0.00000000E+00 0.00000000E+00 0.77914309E-04-0.59409104E-02-0.59940920E-02
 1  4-0.59887527E-02 0.00000000E+00 0.00000000E+00 0.00000000E+00 0.19472600E-05
 1  5-0.72884317E-04 0.00000000E+00 0.91408413E-04-0.85876186E-04 0.19472600E-05
 1  6-0.72884318E-04 0.00000000E+00-0.91408413E-04-0.85876186E-04
 2  1 0.26842062E+00-0.10315256E+01 0.00000000E+00 0.00000000E+00 0.20296084E-02
 2  2-0.37443481E-02 0.00000000E+00 0.00000000E+00 0.47923360E-03 0.24519955E-02
 2  3 0.00000000E+00 0.00000000E+00-0.63305369E-04-0.20739032E-02-0.18591572E-02
 2  4-0.19854734E-02 0.00000000E+00 0.00000000E+00 0.00000000E+00 0.29906110E-03
 2  5 0.24235140E-03 0.00000000E+00-0.14342077E-03 0.17435159E-03 0.29906110E-03
 2  6 0.24235140E-03 0.00000000E+00 0.14342077E-03 0.17435159E-03
 3  1 0.00000000E+00 0.00000000E+00 0.99514043E+00 0.00000000E+00 0.00000000E+00
 3  2 0.00000000E+00 0.18446299E-01 0.00000000E+00 0.00000000E+00 0.00000000E+00
 3  3-0.42538213E-02 0.00000000E+00 0.00000000E+00 0.00000000E+00 0.00000000E+00
 3  4 0.00000000E+00 0.00000000E+00-0.22983921E-03 0.00000000E+00 0.00000000E+00
 3  5 0.00000000E+00-0.27533755E-04 0.00000000E+00 0.00000000E+00 0.00000000E+00
 3  6 0.00000000E+00-0.27533755E-04 0.00000000E+00 0.00000000E+00
 4  1 0.00000000E+00 0.00000000E+00 0.00000000E+00-0.99461411E+00 0.49050218E-10
 4  2 0.00000000E+00 0.00000000E+00-0.19585333E-01 0.00000000E+00 0.00000000E+00
 4  3 0.00000000E+00 0.40127871E-02 0.00000000E+00 0.00000000E+00 0.00000000E+00
 4  4 0.00000000E+00 0.00000000E+00 0.00000000E+00-0.25068098E-04 0.12649593E-02
 4  5 0.11821607E-02 0.00000000E+00 0.63954950E-03-0.55979381E-03-0.12649593E-02
 4  6-0.11821607E-02 0.00000000E+00 0.63954950E-03 0.55979381E-03
 5  1-0.45608417E-03 0.15836890E-02 0.00000000E+00 0.49038687E-10 0.99484853E+00
 5  2 0.42318117E-03 0.00000000E+00 0.00000000E+00 0.19283795E-01 0.16331038E-02
 5  3 0.00000000E+00 0.00000000E+00-0.41165325E-02 0.20638618E-03 0.72236470E-03
 5  4 0.88184521E-04 0.00000000E+00 0.00000000E+00 0.00000000E+00 0.87764067E-03
 5  5-0.21637815E-03 0.00000000E+00 0.43119311E-03-0.52680138E-03 0.87764067E-03
 5  6-0.21637815E-03 0.00000000E+00-0.43119311E-03-0.52680138E-03
 6  1-0.52593244E-01 0.25715832E+00 0.00000000E+00 0.00000000E+00 0.47746032E-01
 6  2-0.55675044E+00 0.00000000E+00 0.00000000E+00-0.10062854E+00-0.17642346E+00
 6  3 0.00000000E+00 0.00000000E+00 0.15682780E-01 0.17884034E-01-0.26827662E-01
 6  4-0.14953304E-01 0.00000000E+00 0.00000000E+00 0.00000000E+00-0.17210557E+00
 6  5-0.13638485E+00 0.00000000E+00-0.79069338E-02 0.77525314E-02-0.17210557E+00
 6  6-0.13638485E+00 0.00000000E+00 0.79069338E-02 0.77525314E-02
 7  1 0.00000000E+00 0.00000000E+00 0.00000000E+00 0.15612571E+00 0.00000000E+00
 7  2 0.00000000E+00 0.00000000E+00-0.39382521E+00 0.00000000E+00 0.00000000E+00
 7  3 0.00000000E+00-0.71456182E-01 0.00000000E+00 0.00000000E+00 0.00000000E+00
 7  4 0.00000000E+00 0.00000000E+00 0.00000000E+00-0.90035846E-01 0.25020428E+00
 7  5 0.29937019E+00 0.00000000E+00 0.57704068E-02-0.63406387E-02-0.25020428E+00
 7  6-0.29937019E+00 0.00000000E+00 0.57704068E-02 0.63406387E-02
 8  1 0.32002967E-01-0.14584057E+00 0.00000000E+00 0.00000000E+00 0.18284065E+00
 8  2 0.42286334E+00 0.00000000E+00 0.00000000E+00-0.51507087E+00 0.23818879E+00
 8  3 0.00000000E+00 0.00000000E+00-0.21511294E+00-0.23892238E-01-0.26119812E-01
 8  4 0.55451686E-01 0.00000000E+00 0.00000000E+00 0.00000000E+00-0.16629541E+00
 8  5-0.17224772E+00 0.00000000E+00-0.70226409E-02-0.78239778E-03-0.16629541E+00
 8  6-0.17224772E+00 0.00000000E+00 0.70226409E-02-0.78239778E-03
 9  1 0.00000000E+00 0.00000000E+00-0.21442413E+00 0.00000000E+00 0.00000000E+00
 9  2 0.00000000E+00 0.62416812E+00 0.00000000E+00 0.00000000E+00 0.00000000E+00
 9  3 0.48882662E+00 0.00000000E+00 0.00000000E+00 0.00000000E+00 0.00000000E+00
 9  4 0.00000000E+00 0.00000000E+00 0.81301236E-01 0.00000000E+00 0.00000000E+00
 9  5 0.00000000E+00 0.89700073E-02 0.00000000E+00 0.00000000E+00 0.00000000E+00
 9  6 0.00000000E+00 0.89700073E-02 0.00000000E+00 0.00000000E+00
10  1 0.00000000E+00 0.00000000E+00 0.00000000E+00 0.23601844E+00 0.00000000E+00
10  2 0.00000000E+00 0.00000000E+00-0.89321764E+00 0.00000000E+00 0.00000000E+00
10  3 0.00000000E+00-0.29832050E+00 0.00000000E+00 0.00000000E+00 0.00000000E+00
10  4 0.00000000E+00 0.00000000E+00 0.00000000E+00-0.66770132E-01-0.51739733E+00
10  5-0.27903829E+00 0.00000000E+00-0.30154596E-01-0.68541154E-02 0.51739733E+00
10  6 0.27903829E+00 0.00000000E+00-0.30154596E-01 0.68541154E-02
11  1-0.29630743E-01 0.13359141E+00 0.00000000E+00 0.00000000E+00 0.18033623E+00
11  2-0.43205034E+00 0.00000000E+00 0.00000000E+00-0.73024171E+00-0.53921303E+00
11  3 0.00000000E+00 0.00000000E+00-0.36800934E+00-0.23718683E+00-0.67358247E-01
11  4 0.28588241E+00 0.00000000E+00 0.00000000E+00 0.00000000E+00 0.43983953E+00
11  5 0.51873158E+00 0.00000000E+00 0.18219993E-01 0.45435944E-02 0.43983953E+00
11  6 0.51873158E+00 0.00000000E+00-0.18219993E-01 0.45435944E-02
12  1 0.00000000E+00 0.00000000E+00 0.00000000E+00 0.00000000E+00 0.00000000E+00
12  2 0.00000000E+00 0.00000000E+00 0.00000000E+00 0.00000000E+00 0.00000000E+00
12  3 0.00000000E+00 0.00000000E+00 0.00000000E+00 0.00000000E+00 0.00000000E+00
12  4 0.00000000E+00-0.98502555E+00 0.00000000E+00 0.00000000E+00 0.00000000E+00
12  5 0.00000000E+00 0.51372885E-01 0.00000000E+00 0.00000000E+00 0.00000000E+00
12  6 0.00000000E+00-0.51372885E-01 0.00000000E+00 0.00000000E+00
13  1 0.00000000E+00 0.00000000E+00 0.00000000E+00-0.13327444E-01 0.00000000E+00
13  2 0.00000000E+00 0.00000000E+00 0.17445650E+00 0.00000000E+00 0.00000000E+00
13  3 0.00000000E+00 0.86195702E+00 0.00000000E+00 0.00000000E+00 0.00000000E+00
13  4 0.00000000E+00 0.00000000E+00 0.00000000E+00 0.84861262E+00-0.39070612E+00
13  5 0.13267823E+01 0.00000000E+00-0.11521633E-01 0.30881943E-02 0.39070612E+00
13  6-0.13267823E+01 0.00000000E+00-0.11521633E-01-0.30881943E-02
14  1 0.19551095E-02 0.20842818E-01 0.00000000E+00 0.00000000E+00 0.50578605E-01
14  2 0.18352449E+00 0.00000000E+00 0.00000000E+00-0.31226821E+00-0.15511442E+01
14  3 0.00000000E+00 0.00000000E+00-0.86312737E+00 0.89234770E+00-0.75269242E+00
14  4-0.24023597E+00 0.00000000E+00 0.00000000E+00 0.00000000E+00-0.20056409E+00
14  5 0.13559952E+01 0.00000000E+00 0.24351604E-03 0.18461881E-01-0.20056409E+00
14  6 0.13559952E+01 0.00000000E+00-0.24351604E-03 0.18461881E-01
15  1-0.10793540E-01 0.60195913E-01 0.00000000E+00 0.00000000E+00 0.29493131E-01
15  2-0.29046244E+00 0.00000000E+00 0.00000000E+00 0.22440969E-01 0.11901007E+01
15  3 0.00000000E+00 0.00000000E+00 0.71554213E+00 0.55972706E+00-0.23886381E-01
15  4-0.16519213E+00 0.00000000E+00 0.00000000E+00 0.00000000E+00 0.86910267E+00
15  5-0.14329671E+01 0.00000000E+00-0.18608398E-01-0.66761010E-02 0.86910267E+00
15  6-0.14329671E+01 0.00000000E+00 0.18608398E-01-0.66761010E-02
16  1 0.00000000E+00 0.00000000E+00 0.00000000E+00 0.19086401E-01 0.00000000E+00
16  2 0.00000000E+00 0.00000000E+00-0.15134464E+00 0.00000000E+00 0.00000000E+00
16  3 0.00000000E+00-0.37143984E+00 0.00000000E+00 0.00000000E+00 0.00000000E+00
16  4 0.00000000E+00 0.00000000E+00 0.00000000E+00 0.73447957E+00 0.77705055E+00
16  5-0.89388609E+00 0.00000000E+00 0.70446405E-03 0.34613645E-01-0.77705055E+00
16  6 0.89388609E+00 0.00000000E+00 0.70446405E-03-0.34613645E-01
17  1 0.00000000E+00 0.00000000E+00 0.00000000E+00-0.17880022E-01 0.00000000E+00
17  2 0.00000000E+00 0.00000000E+00 0.40327989E-01 0.00000000E+00 0.00000000E+00
17  3 0.00000000E+00 0.66121320E-01 0.00000000E+00 0.00000000E+00 0.00000000E+00
17  4 0.00000000E+00 0.00000000E+00 0.00000000E+00-0.42186430E-01 0.55051508E-01
17  5-0.34787748E-01 0.00000000E+00-0.55467766E+00-0.44375422E+00-0.55051508E-01
17  6 0.34787748E-01 0.00000000E+00-0.55467766E+00 0.44375422E+00
18  1 0.00000000E+00 0.00000000E+00 0.00000000E+00 0.00000000E+00 0.00000000E+00
18  2 0.00000000E+00 0.00000000E+00 0.00000000E+00 0.00000000E+00 0.00000000E+00
18  3 0.00000000E+00 0.00000000E+00 0.00000000E+00 0.00000000E+00 0.00000000E+00
18  4 0.00000000E+00-0.24449135E+00 0.00000000E+00 0.00000000E+00 0.00000000E+00
18  5 0.00000000E+00-0.71582953E+00 0.00000000E+00 0.00000000E+00 0.00000000E+00
18  6 0.00000000E+00 0.71582953E+00 0.00000000E+00 0.00000000E+00
19  1 0.00000000E+00 0.00000000E+00-0.31247389E-01 0.00000000E+00 0.00000000E+00
19  2 0.00000000E+00 0.11164767E+00 0.00000000E+00 0.00000000E+00 0.00000000E+00
19  3 0.60629007E-01 0.00000000E+00 0.00000000E+00 0.00000000E+00 0.00000000E+00
19  4 0.00000000E+00 0.00000000E+00 0.22788755E+00 0.00000000E+00 0.00000000E+00
19  5 0.00000000E+00-0.72265199E+00 0.00000000E+00 0.00000000E+00 0.00000000E+00
19  6 0.00000000E+00-0.72265199E+00 0.00000000E+00 0.00000000E+00
20  1 0.21079115E-01-0.89545571E-01 0.00000000E+00 0.00000000E+00 0.63142643E-02
20  2 0.78552077E+00 0.00000000E+00 0.00000000E+00 0.18112974E-01-0.54714866E-01
20  3 0.00000000E+00 0.00000000E+00-0.79219877E-01-0.32350362E+00 0.17271912E-01
20  4-0.54537197E+00 0.00000000E+00 0.00000000E+00 0.00000000E+00 0.30683694E-01
20  5-0.50611303E-01 0.00000000E+00 0.35486845E+00 0.62725464E+00 0.30683694E-01
20  6-0.50611303E-01 0.00000000E+00-0.35486845E+00 0.62725464E+00
21  1 0.13187834E+00-0.60258612E+00 0.00000000E+00 0.00000000E+00-0.29478906E-01
21  2 0.53226412E+01 0.00000000E+00 0.00000000E+00 0.18176685E+00 0.18217070E-01
21  3 0.00000000E+00 0.00000000E+00 0.13916850E+00-0.23084949E+01-0.22055890E+01
21  4-0.20960561E+01 0.00000000E+00 0.00000000E+00 0.00000000E+00 0.12804398E+00
21  5-0.33845883E+00 0.00000000E+00-0.28479609E+00 0.43763698E-01 0.12804398E+00
21  6-0.33845883E+00 0.00000000E+00 0.28479609E+00 0.43763698E-01
22  1 0.00000000E+00 0.00000000E+00 0.00000000E+00-0.10833804E+00 0.00000000E+00
22  2 0.00000000E+00 0.00000000E+00 0.61434896E+00 0.00000000E+00 0.00000000E+00
22  3 0.00000000E+00 0.62380671E-01 0.00000000E+00 0.00000000E+00 0.00000000E+00
22  4 0.00000000E+00 0.00000000E+00 0.00000000E+00 0.66012233E+00 0.95379583E-01
22  5 0.42822444E+00 0.00000000E+00 0.54277138E+00-0.65464411E+00-0.95379583E-01
22  6-0.42822444E+00 0.00000000E+00 0.54277138E+00 0.65464411E+00
23  1-0.57109540E-01 0.27669693E+00 0.00000000E+00 0.00000000E+00-0.10065492E+00
23  2-0.27957084E+01 0.00000000E+00 0.00000000E+00 0.56201520E+00 0.47870657E+00
23  3 0.00000000E+00 0.00000000E+00 0.10009501E+00 0.10023147E+01 0.15430967E+01
23  4 0.15814342E+01 0.00000000E+00 0.00000000E+00 0.00000000E+00-0.79501512E-01
23  5-0.45618351E+00 0.00000000E+00-0.65868465E+00 0.44436407E+00-0.79501512E-01
23  6-0.45618351E+00 0.00000000E+00 0.65868465E+00 0.44436407E+00
24  1 0.00000000E+00 0.00000000E+00-0.24002163E-01 0.00000000E+00 0.00000000E+00
24  2 0.00000000E+00 0.77256533E-01 0.00000000E+00 0.00000000E+00 0.00000000E+00
24  3 0.26853598E-01 0.00000000E+00 0.00000000E+00 0.00000000E+00 0.00000000E+00
24  4 0.00000000E+00 0.00000000E+00-0.98412064E+00 0.00000000E+00 0.00000000E+00
24  5 0.00000000E+00-0.45158951E-01 0.00000000E+00 0.00000000E+00 0.00000000E+00
24  6 0.00000000E+00-0.45158951E-01 0.00000000E+00 0.00000000E+00
25  1 0.32637854E-02-0.21235854E-01 0.00000000E+00 0.00000000E+00-0.72082724E-01
25  2-0.37988899E-03 0.00000000E+00 0.00000000E+00 0.33612116E+00 0.61163721E+00
25  3 0.00000000E+00 0.00000000E+00 0.27704677E+00-0.16518466E+00-0.66835723E+00
25  4 0.88909068E+00 0.00000000E+00 0.00000000E+00 0.00000000E+00 0.68830882E-01
25  5-0.58342114E+00 0.00000000E+00 0.45821330E-01 0.43417522E-01 0.68830882E-01
25  6-0.58342114E+00 0.00000000E+00-0.45821330E-01 0.43417522E-01
26  1 0.00000000E+00 0.00000000E+00-0.26494411E+00 0.00000000E+00 0.00000000E+00
26  2 0.00000000E+00 0.12422382E+01 0.00000000E+00 0.00000000E+00 0.00000000E+00
26  3-0.12521620E+01 0.00000000E+00 0.00000000E+00 0.00000000E+00 0.00000000E+00
26  4 0.00000000E+00 0.00000000E+00 0.12423223E-01 0.00000000E+00 0.00000000E+00
26  5 0.00000000E+00 0.81454807E-02 0.00000000E+00 0.00000000E+00 0.00000000E+00
26  6 0.00000000E+00 0.81454807E-02 0.00000000E+00 0.00000000E+00
27  1 0.23227573E-01-0.46690293E-01 0.00000000E+00 0.00000000E+00 0.20317222E+00
27  2 0.55008842E+00 0.00000000E+00 0.00000000E+00-0.98503871E+00-0.30781785E+00
27  3 0.00000000E+00 0.00000000E+00 0.13945266E+01-0.17233748E-01 0.29880816E-02
27  4 0.10463171E+00 0.00000000E+00 0.00000000E+00 0.00000000E+00-0.62596831E-02
27  5-0.26634104E+00 0.00000000E+00-0.70728937E-02 0.65283893E-02-0.62596831E-02
27  6-0.26634104E+00 0.00000000E+00 0.70728937E-02 0.65283893E-02
28  1 0.00000000E+00 0.00000000E+00 0.00000000E+00 0.20627706E+00 0.00000000E+00
28  2 0.00000000E+00 0.00000000E+00-0.10162196E+01 0.00000000E+00 0.00000000E+00
28  3 0.00000000E+00 0.14783198E+01 0.00000000E+00 0.00000000E+00 0.00000000E+00
28  4 0.00000000E+00 0.00000000E+00 0.00000000E+00-0.26671530E-01 0.13332833E-01
28  5 0.25060448E+00 0.00000000E+00 0.86241986E-02-0.14195256E-01-0.13332833E-01
28  6-0.25060448E+00 0.00000000E+00 0.86241986E-02 0.14195256E-01
29  1 0.48167408E-01-0.36110322E-01 0.00000000E+00 0.00000000E+00-0.60494354E-01
29  2 0.13838613E+01 0.00000000E+00 0.00000000E+00 0.25667885E+00-0.22413708E+01
29  3 0.00000000E+00 0.00000000E+00-0.76517809E+00 0.25496075E-01 0.94407590E-01
29  4 0.70144968E-01 0.00000000E+00 0.00000000E+00 0.00000000E+00 0.31784971E-01
29  5 0.51026481E+00 0.00000000E+00 0.12156939E-01-0.11571830E-01 0.31784971E-01
29  6 0.51026481E+00 0.00000000E+00-0.12156939E-01-0.11571830E-01
 $END
