! Bench 11
!
! Rotated HP=PH...at the cis to trans rotational saddle point
! There are 42 AOs and 55,017 CSFs.
!
! This calculation comes from a study of the HP=PH system by
! M.W.Schmidt & M.S.Gordon  Inorg.Chem.  1986, 25, 248-254.
! The 3-21G* saddle point was located with a 4 electrons in 4
! orbitals Full Optimized Reaction Space MCSCF wavefunction.
! The orbitals were obtained from the same MCSCF, in the 6-31G*
! basis, taking care to generate canonical core orbitals.  The
! two highest energy core orbitals of the MCSCF function are
! the P lone pairs, which are allowed to be excited in this
! second order CI wavefunction.  Only the true core, and the
! PH bonds are uncorrelated.
!
! The final CI ENERGY is -682.6610342874 after 16 iterations.
!                            
 $CONTRL SCFTYP=NONE  RUNTYP=ENERGY  NZVAR=6  UNITS=BOHR CITYP=GUGA $END
 $SYSTEM TIMLIM=4000 MEMORY=500000 $END
 $BASIS  GBASIS=N31 NGAUSS=6 NDFUNC=1 $END
 $GUESS  GUESS=MOREAD NORB=42 $END
 $CIDRT  GROUP=C2 SOCI=.TRUE. NFZC=12 NDOC=4 NVAL=2 NEXT=-1 $END
 $ZMAT   IZMAT(1)=1,1,2,  1,1,3,  1,2,4,  2,3,1,2,   2,4,2,1,
         3,3,1,2,4 $END
 $DATA
TWISTED HP=PH...C2...SOCI/6-31G*//MCSCF/3-21G*
CN  2

PHOSPHORUS  15.   -2.1539327751     -0.0635663901        0.0704793107
HYDROGEN     1.   -2.4262203694      1.8113426617       -1.7980858230
 $END
! MCSCF ORBITALS: TWISTED HP=PH...C2...MCSCF/6-31G*//MCSCF/3-21G*(6D)
 $VEC
 1  1 0.70457741D+00 0.95426969D-02-0.64997978D-04-0.32248418D-04-0.29068583D-04
 1  2-0.15462438D-01 0.22794915D-03 0.31850295D-04 0.20638244D-04 0.33858422D-02
 1  3-0.68518773D-03-0.10325114D-03-0.97347312D-04 0.51727119D-02 0.52514509D-02
 1  4 0.52517084D-02-0.47682597D-05 0.11256078D-05 0.25048112D-05-0.70457741D+00
 1  5-0.95426969D-02-0.64997978D-04-0.32248418D-04 0.29068583D-04 0.15462438D-01
 1  6 0.22794915D-03 0.31850295D-04-0.20638244D-04-0.33858422D-02-0.68518773D-03
 1  7-0.10325114D-03 0.97347312D-04-0.51727119D-02-0.52514509D-02-0.52517084D-02
 1  8 0.47682597D-05 0.11256078D-05 0.25048112D-05 0.10444327D-03-0.23042234D-03
 1  9-0.10444327D-03 0.23042234D-03
 2  1 0.70458672D+00 0.95412189D-02-0.11923397D-04-0.31354519D-04-0.31518983D-04
 2  2-0.15250370D-01-0.70883187D-04 0.24458504D-04 0.31679395D-04 0.23014628D-02
 2  3-0.51429643D-04-0.18242870D-03-0.15150106D-03 0.53750896D-02 0.52467737D-02
 2  4 0.52463137D-02 0.80028216D-05-0.41575885D-05 0.59246400D-05 0.70458672D+00
 2  5 0.95412189D-02 0.11923397D-04 0.31354519D-04-0.31518983D-04-0.15250370D-01
 2  6 0.70883187D-04-0.24458504D-04 0.31679395D-04 0.23014628D-02 0.51429643D-04
 2  7 0.18242870D-03-0.15150106D-03 0.53750896D-02 0.52467737D-02 0.52463137D-02
 2  8 0.80028216D-05 0.41575885D-05-0.59246400D-05 0.14667971D-03-0.41032971D-03
 2  9 0.14667971D-03-0.41032971D-03
 3  1-0.19525182D+00 0.72886886D+00-0.29861265D-02-0.25309971D-02-0.24032624D-02
 3  2 0.12789428D-01-0.69843979D-03-0.44161165D-03-0.46871072D-03-0.31770592D-02
 3  3 0.28345751D-03 0.66476198D-03 0.47451817D-03-0.11512234D-02-0.10051115D-02
 3  4-0.99946622D-03-0.61778487D-04-0.35695089D-04-0.94337207D-05-0.19525182D+00
 3  5 0.72886886D+00 0.29861265D-02 0.25309971D-02-0.24032624D-02 0.12789428D-01
 3  6 0.69843979D-03 0.44161165D-03-0.46871072D-03-0.31770592D-02-0.28345751D-03
 3  7-0.66476198D-03 0.47451817D-03-0.11512234D-02-0.10051115D-02-0.99946622D-03
 3  8-0.61778487D-04 0.35695089D-04 0.94337207D-05-0.97791759D-04 0.99698148D-03
 3  9-0.97791759D-04 0.99698148D-03
 4  1 0.19525631D+00-0.72895915D+00 0.29947578D-02 0.25168708D-02 0.24218077D-02
 4  2-0.12967863D-01 0.66136767D-03 0.46825210D-03 0.41440320D-03 0.55186136D-02
 4  3-0.17100100D-02-0.41621364D-03-0.51632247D-03 0.92598578D-03 0.97102465D-03
 4  4 0.97004242D-03 0.35175231D-04 0.63068378D-04 0.90669899D-05-0.19525631D+00
 4  5 0.72895915D+00 0.29947578D-02 0.25168708D-02-0.24218077D-02 0.12967863D-01
 4  6 0.66136767D-03 0.46825210D-03-0.41440320D-03-0.55186136D-02-0.17100100D-02
 4  7-0.41621364D-03 0.51632247D-03-0.92598578D-03-0.97102465D-03-0.97004242D-03
 4  8-0.35175231D-04 0.63068378D-04 0.90669899D-05-0.44617005D-04-0.67462200D-03
 4  9 0.44617005D-04 0.67462200D-03
 5  1-0.71175329D-04 0.29900599D-03-0.48152123D+00 0.29438728D+00 0.41840662D+00
 5  2 0.61960306D-03-0.11395061D-01 0.59855289D-02 0.83384496D-02 0.14182141D-03
 5  3 0.17324949D-02-0.16715896D-02-0.18797207D-02 0.42664768D-03-0.34350841D-03
 5  4-0.40092264D-03 0.56777787D-04 0.89652024D-04-0.51043253D-03-0.71175329D-04
 5  5 0.29900599D-03 0.48152123D+00-0.29438728D+00 0.41840662D+00 0.61960306D-03
 5  6 0.11395061D-01-0.59855289D-02 0.83384496D-02 0.14182141D-03-0.17324949D-02
 5  7 0.16715896D-02-0.18797207D-02 0.42664768D-03-0.34350841D-03-0.40092264D-03
 5  8 0.56777787D-04-0.89652024D-04 0.51043253D-03 0.91089690D-04-0.32725735D-03
 5  9 0.91089690D-04-0.32725735D-03
 6  1-0.24867206D-03 0.97042018D-03-0.44739006D+00 0.33846093D+00 0.42365503D+00
 6  2-0.72043934D-03-0.95317850D-02 0.67261600D-02 0.86232850D-02-0.56422742D-03
 6  3 0.26743579D-02-0.15912717D-02-0.25111023D-02 0.12199077D-02-0.16309006D-03
 6  4-0.20508636D-03 0.91692803D-04-0.38229396D-04-0.45447555D-03 0.24867206D-03
 6  5-0.97042018D-03-0.44739006D+00 0.33846093D+00-0.42365503D+00 0.72043934D-03
 6  6-0.95317850D-02 0.67261600D-02-0.86232850D-02 0.56422742D-03 0.26743579D-02
 6  7-0.15912717D-02 0.25111023D-02-0.12199077D-02 0.16309006D-03 0.20508636D-03
 6  8-0.91692803D-04-0.38229396D-04-0.45447555D-03 0.25287073D-03-0.60803852D-03
 6  9-0.25287073D-03 0.60803852D-03
 7  1 0.81834388D-04-0.30168274D-03 0.25473478D-01-0.53561110D+00 0.45472642D+00
 7  2 0.29594004D-03 0.52574920D-03-0.10612352D-01 0.92161632D-02-0.32226872D-03
 7  3-0.25109843D-04 0.23425713D-02-0.23511081D-02-0.11092007D-03 0.24036898D-03
 7  4-0.31198037D-03 0.17351167D-03-0.23693245D-03 0.14027222D-04-0.81834388D-04
 7  5 0.30168274D-03 0.25473478D-01-0.53561110D+00-0.45472642D+00-0.29594004D-03
 7  6 0.52574920D-03-0.10612352D-01-0.92161632D-02 0.32226872D-03-0.25109843D-04
 7  7 0.23425713D-02 0.23511081D-02 0.11092007D-03-0.24036898D-03 0.31198037D-03
 7  8-0.17351167D-03-0.23693245D-03 0.14027222D-04-0.17681608D-04 0.20595714D-03
 7  9 0.17681608D-04-0.20595714D-03
 8  1 0.63384200D-04-0.25308167D-03 0.50538595D-01-0.54468984D+00 0.44163350D+00
 8  2 0.79894992D-04 0.11926519D-02-0.11019127D-01 0.87684649D-02 0.86456670D-04
 8  3-0.19791584D-03 0.28478598D-02-0.19196386D-02-0.13559541D-03 0.27489523D-03
 8  4-0.27320722D-03 0.25054195D-03-0.18104090D-03 0.86894321D-04 0.63384200D-04
 8  5-0.25308167D-03-0.50538595D-01 0.54468984D+00 0.44163350D+00 0.79894992D-04
 8  6-0.11926519D-02 0.11019127D-01 0.87684649D-02 0.86456670D-04 0.19791584D-03
 8  7-0.28478598D-02-0.19196386D-02-0.13559541D-03 0.27489523D-03-0.27320722D-03
 8  8 0.25054195D-03 0.18104090D-03-0.86894321D-04-0.92292758D-05-0.11485705D-03
 8  9-0.92292758D-05-0.11485705D-03
 9  1 0.15334018D-02-0.58569958D-02-0.50850756D+00-0.33307636D+00-0.35251793D+00
 9  2 0.52905394D-02-0.11430677D-01-0.64717809D-02-0.67291498D-02-0.10203642D-02
 9  3 0.17419185D-02 0.19138839D-02 0.16283821D-02-0.12406066D-02-0.13505612D-02
 9  4-0.13479904D-02 0.34370466D-03 0.28090892D-03 0.29452054D-03 0.15334018D-02
 9  5-0.58569958D-02 0.50850756D+00 0.33307636D+00-0.35251793D+00 0.52905394D-02
 9  6 0.11430677D-01 0.64717809D-02-0.67291498D-02-0.10203642D-02-0.17419185D-02
 9  7-0.19138839D-02 0.16283821D-02-0.12406066D-02-0.13505612D-02-0.13479904D-02
 9  8 0.34370466D-03-0.28090892D-03-0.29452054D-03-0.24665851D-03 0.67949489D-03
 9  9-0.24665851D-03 0.67949489D-03
10  1 0.14413133D-02-0.55223988D-02-0.54173108D+00-0.30486874D+00-0.32867175D+00
10  2 0.42087501D-02-0.10983447D-01-0.57691721D-02-0.63496233D-02-0.20450899D-02
10  3 0.32033883D-02 0.12482194D-02 0.15782945D-02-0.42787547D-03-0.12854068D-02
10  4-0.12767844D-02 0.25818327D-03 0.33794984D-03 0.35762623D-03-0.14413133D-02
10  5 0.55223988D-02-0.54173108D+00-0.30486874D+00 0.32867175D+00-0.42087501D-02
10  6-0.10983447D-01-0.57691721D-02 0.63496233D-02 0.20450899D-02 0.32033883D-02
10  7 0.12482194D-02-0.15782945D-02 0.42787547D-03 0.12854068D-02 0.12767844D-02
10  8-0.25818327D-03 0.33794984D-03 0.35762623D-03-0.40993457D-04 0.77143320D-04
10  9 0.40993457D-04-0.77143320D-04
11  1-0.43191878D-01 0.20200207D+00 0.29676130D-01-0.23605004D-01-0.27357357D-01
11  2-0.39052004D+00-0.87009031D-01 0.55633520D-01 0.64914019D-01-0.17545939D+00
11  3-0.61929935D-01-0.12684348D-01-0.58798774D-02 0.37379777D-02-0.14314309D-01
11  4-0.14396290D-01 0.47772752D-02 0.29857801D-02-0.26344773D-01-0.43191878D-01
11  5 0.20200207D+00-0.29676130D-01 0.23605004D-01-0.27357357D-01-0.39052004D+00
11  6 0.87009031D-01-0.55633520D-01 0.64914019D-01-0.17545939D+00 0.61929935D-01
11  7 0.12684348D-01-0.58798774D-02 0.37379777D-02-0.14314309D-01-0.14396290D-01
11  8 0.47772752D-02-0.29857801D-02 0.26344773D-01-0.14121537D+00-0.10841485D+00
11  9-0.14121537D+00-0.10841485D+00
12  1-0.42941830D-01 0.20172839D+00 0.29895921D-01-0.35977626D-01-0.31514033D-01
12  2-0.39591744D+00-0.73964193D-01 0.87069616D-01 0.76574958D-01-0.21486477D+00
12  3 0.11527048D-02 0.25474499D-02-0.41698685D-02 0.18552710D-01-0.20017526D-01
12  4-0.19552961D-01 0.25719834D-02 0.54124728D-02-0.31436161D-01 0.42941830D-01
12  5-0.20172839D+00 0.29895921D-01-0.35977626D-01 0.31514033D-01 0.39591744D+00
12  6-0.73964193D-01 0.87069616D-01-0.76574958D-01 0.21486477D+00 0.11527048D-02
12  7 0.25474499D-02 0.41698685D-02-0.18552710D-01 0.20017526D-01 0.19552961D-01
12  8-0.25719834D-02 0.54124728D-02-0.31436161D-01-0.16058482D+00-0.12401941D+00
12  9 0.16058482D+00 0.12401941D+00
13  1 0.20062549D-01-0.94223645D-01-0.18424630D-01-0.84316418D-01-0.10320594D+00
13  2 0.20788033D+00 0.51416342D-01 0.21929076D+00 0.26296882D+00 0.21745545D+00
13  3 0.70522049D-01 0.78642043D-01 0.90716106D-01 0.26677437D-01-0.16387813D-01
13  4-0.17350828D-01 0.88304465D-02-0.10319880D-01-0.42723041D-01 0.20062549D-01
13  5-0.94223645D-01 0.18424630D-01 0.84316418D-01-0.10320594D+00 0.20788033D+00
13  6-0.51416342D-01-0.21929076D+00 0.26296882D+00 0.21745545D+00-0.70522049D-01
13  7-0.78642043D-01 0.90716106D-01 0.26677437D-01-0.16387813D-01-0.17350828D-01
13  8 0.88304465D-02 0.10319880D-01 0.42723041D-01-0.17262903D+00-0.22372902D+00
13  9-0.17262903D+00-0.22372902D+00
14  1 0.24703254D-01-0.11718240D+00-0.25412043D-01-0.10120964D+00-0.80397306D-01
14  2 0.25457114D+00 0.67261131D-01 0.25833945D+00 0.20947175D+00 0.27354864D+00
14  3 0.38420700D-01 0.88011539D-01 0.71832368D-01 0.10540958D-01-0.12178829D-01
14  4-0.10782619D-01-0.11044457D-01 0.81604269D-02-0.41235908D-01-0.24703254D-01
14  5 0.11718240D+00-0.25412043D-01-0.10120964D+00 0.80397306D-01-0.25457114D+00
14  6 0.67261131D-01 0.25833945D+00-0.20947175D+00-0.27354864D+00 0.38420700D-01
14  7 0.88011539D-01-0.71832368D-01-0.10540958D-01 0.12178829D-01 0.10782619D-01
14  8 0.11044457D-01 0.81604269D-02-0.41235908D-01-0.15459297D+00-0.22462370D+00
14  9 0.15459297D+00 0.22462370D+00
15  1-0.10578832D-01 0.47784629D-01-0.18158027D+00 0.44821861D-03-0.46203452D-02
15  2-0.81944763D-01 0.46942599D+00 0.89442779D-03 0.13441574D-01 0.16501040D-01
15  3 0.18920904D+00 0.34772366D-01 0.45343858D-01-0.76675004D-01 0.24008853D-01
15  4 0.23553793D-01-0.87627567D-02-0.89410307D-02 0.71668812D-02-0.10578832D-01
15  5 0.47784629D-01 0.18158027D+00-0.44821861D-03-0.46203452D-02-0.81944763D-01
15  6-0.46942599D+00-0.89442779D-03 0.13441574D-01 0.16501040D-01-0.18920904D+00
15  7-0.34772366D-01 0.45343858D-01-0.76675004D-01 0.24008853D-01 0.23553793D-01
15  8-0.87627567D-02 0.89410307D-02-0.71668812D-02 0.31731457D-01 0.82166869D-01
15  9 0.31731457D-01 0.82166869D-01
16  1-0.35972955D-02 0.16677029D-01-0.35894043D-02-0.11304793D+00 0.13457330D+00
16  2-0.41692353D-01 0.16828354D-01 0.30819200D+00-0.36792589D+00-0.69602073D-01
16  3-0.52562895D-02 0.21065066D+00-0.24493966D+00-0.73158604D-02-0.45342961D-02
16  4 0.13972412D-01-0.22726092D-01-0.76821702D-02 0.96976211D-02 0.35972955D-02
16  5-0.16677029D-01-0.35894043D-02-0.11304793D+00-0.13457330D+00 0.41692353D-01
16  6 0.16828354D-01 0.30819200D+00 0.36792589D+00 0.69602073D-01-0.52562895D-02
16  7 0.21065066D+00 0.24493966D+00 0.73158604D-02 0.45342961D-02-0.13972412D-01
16  8 0.22726092D-01-0.76821702D-02 0.96976211D-02 0.42699805D-01 0.86460591D-01
16  9-0.42699805D-01-0.86460591D-01
17  1 0.19041864D-02-0.94882446D-02-0.76206598D-02-0.13423731D+00 0.11352709D+00
17  2 0.21671139D-01 0.18962969D-01 0.36719486D+00-0.30900825D+00 0.55871395D-01
17  3 0.18982325D-01 0.24837943D+00-0.20788684D+00 0.52685817D-02-0.12841890D-01
17  4 0.39312711D-02 0.69694483D-02 0.22255069D-01-0.56970818D-02 0.19041864D-02
17  5-0.94882446D-02 0.76206598D-02 0.13423731D+00 0.11352709D+00 0.21671139D-01
17  6-0.18962969D-01-0.36719486D+00-0.30900825D+00 0.55871395D-01-0.18982325D-01
17  7-0.24837943D+00-0.20788684D+00 0.52685817D-02-0.12841890D-01 0.39312711D-02
17  8 0.69694483D-02-0.22255069D-01 0.56970818D-02-0.41203756D-01-0.76367451D-01
17  9-0.41203756D-01-0.76367451D-01
18  1-0.24122288D-01 0.96609542D-01-0.23713430D+00 0.23299280D-02-0.44115891D-02
18  2-0.30954178D+00 0.78500931D+00-0.29302570D-02 0.16100774D-01-0.17032424D+00
18  3 0.21858105D+00 0.27595451D-01 0.33999603D-01-0.90090815D-01 0.26805937D-01
18  4 0.26048707D-01-0.13671218D-01-0.17469622D-01 0.29008848D-01 0.24122288D-01
18  5-0.96609542D-01-0.23713430D+00 0.23299280D-02 0.44115891D-02 0.30954178D+00
18  6 0.78500931D+00-0.29302570D-02-0.16100774D-01 0.17032424D+00 0.21858105D+00
18  7 0.27595451D-01-0.33999603D-01 0.90090815D-01-0.26805937D-01-0.26048707D-01
18  8 0.13671218D-01-0.17469622D-01 0.29008848D-01 0.15663243D-01 0.74261493D-01
18  9-0.15663243D-01-0.74261493D-01
19  1-0.54303947D-03 0.30523466D-01 0.37749742D-01 0.18504298D+00 0.58006456D-01
19  2 0.72764746D-01-0.18745419D+00-0.80120006D+00-0.25427041D+00-0.61948134D+00
19  3 0.64147299D+00 0.72672249D+00 0.32705968D+00 0.13978809D-02 0.22593023D-01
19  4 0.14168295D-01 0.11010730D-01 0.10217097D-01 0.47474396D-01 0.54303947D-03
19  5-0.30523466D-01 0.37749742D-01 0.18504298D+00-0.58006456D-01-0.72764746D-01
19  6-0.18745419D+00-0.80120006D+00 0.25427041D+00 0.61948134D+00 0.64147299D+00
19  7 0.72672249D+00-0.32705968D+00-0.13978809D-02-0.22593023D-01-0.14168295D-01
19  8-0.11010730D-01 0.10217097D-01 0.47474396D-01 0.65771314D-01-0.58609131D-02
19  9-0.65771314D-01 0.58609131D-02
20  1-0.13101799D-01 0.21852453D-01 0.40560287D-01 0.40475093D-01 0.18689638D+00
20  2-0.30057999D+00-0.18416797D+00-0.17746616D+00-0.80972720D+00 0.36968833D+00
20  3 0.21313167D+00 0.17124203D+00 0.67642001D+00 0.47525895D-02-0.42495319D-02
20  4 0.43125706D-02 0.72694991D-02 0.13715863D-01 0.34983363D-01-0.13101799D-01
20  5 0.21852453D-01-0.40560287D-01-0.40475093D-01 0.18689638D+00-0.30057999D+00
20  6 0.18416797D+00 0.17746616D+00-0.80972720D+00 0.36968833D+00-0.21313167D+00
20  7-0.17124203D+00 0.67642001D+00 0.47525895D-02-0.42495319D-02 0.43125706D-02
20  8 0.72694991D-02-0.13715863D-01-0.34983363D-01 0.55564337D-01-0.11689903D+00
20  9 0.55564337D-01-0.11689903D+00
21  1-0.18172990D-01-0.32640021D-01-0.12728869D+00 0.33590917D-02 0.29242327D-01
21  2-0.57423845D+00 0.67113944D+00 0.16115435D-01-0.10828714D+00 0.86992263D+00
21  3-0.69834975D+00-0.48277833D+00-0.23433387D+00-0.25843375D+00 0.54442463D-01
21  4 0.57600273D-01-0.18567386D-01 0.45540864D-01-0.98218100D-01-0.18172990D-01
21  5-0.32640021D-01 0.12728869D+00-0.33590917D-02 0.29242327D-01-0.57423845D+00
21  6-0.67113944D+00-0.16115435D-01-0.10828714D+00 0.86992263D+00 0.69834975D+00
21  7 0.48277833D+00-0.23433387D+00-0.25843375D+00 0.54442463D-01 0.57600273D-01
21  8-0.18567386D-01-0.45540864D-01 0.98218100D-01-0.84569566D-01-0.67647004D+00
21  9-0.84569566D-01-0.67647004D+00
22  1-0.13720766D-01-0.20289736D-01-0.93811197D-02 0.63890631D-01-0.17873851D+00
22  2-0.43633645D+00 0.69627379D-01-0.28323556D+00 0.79070255D+00 0.11854638D+01
22  3-0.64265052D+00 0.19606220D+00-0.10646804D+01-0.34300227D-01-0.21077862D-02
22  4-0.16493938D-01 0.70834871D-02-0.41997424D-01-0.32451161D-01 0.13720766D-01
22  5 0.20289736D-01-0.93811197D-02 0.63890631D-01 0.17873851D+00 0.43633645D+00
22  6 0.69627379D-01-0.28323556D+00-0.79070255D+00-0.11854638D+01-0.64265052D+00
22  7 0.19606220D+00 0.10646804D+01 0.34300227D-01 0.21077862D-02 0.16493938D-01
22  8-0.70834871D-02-0.41997424D-01-0.32451161D-01-0.13558340D-01-0.12773185D+00
22  9 0.13558340D-01 0.12773185D+00
23  1-0.70045474D-02 0.36355704D-02-0.10616657D-02 0.19422414D+00-0.45328273D-01
23  2-0.18538469D+00 0.10074380D-01-0.85843746D+00 0.20402695D+00 0.27087363D+00
23  3 0.49427492D-02 0.10022025D+01-0.25768365D+00-0.24144225D-01 0.15879199D-01
23  4-0.80437378D-03 0.45247814D-01 0.31432802D-02 0.24409635D-02-0.70045474D-02
23  5 0.36355704D-02 0.10616657D-02-0.19422414D+00-0.45328273D-01-0.18538469D+00
23  6-0.10074380D-01 0.85843746D+00 0.20402695D+00 0.27087363D+00-0.49427492D-02
23  7-0.10022025D+01-0.25768365D+00-0.24144225D-01 0.15879199D-01-0.80437378D-03
23  8 0.45247814D-01-0.31432802D-02-0.24409635D-02 0.13018122D-01-0.15490540D+00
23  9 0.13018122D-01-0.15490540D+00
24  1-0.43649560D-01-0.45089339D-01-0.66631519D-02-0.26520868D-02 0.64271411D-01
24  2-0.13495301D+01 0.87050912D-01 0.98152755D-02-0.29280925D+00 0.34116740D+01
24  3-0.15299638D+01-0.26580111D+00 0.11378125D+00-0.11092720D+00-0.38258970D-02
24  4-0.29341028D-04 0.97005432D-02 0.19464744D-01-0.60353218D-01 0.43649560D-01
24  5 0.45089339D-01-0.66631519D-02-0.26520868D-02-0.64271411D-01 0.13495301D+01
24  6 0.87050912D-01 0.98152755D-02 0.29280925D+00-0.34116740D+01-0.15299638D+01
24  7-0.26580111D+00-0.11378125D+00 0.11092720D+00 0.38258970D-02 0.29341028D-04
24  8-0.97005432D-02 0.19464744D-01-0.60353218D-01 0.36070267D-01-0.57192114D+00
24  9-0.36070267D-01 0.57192114D+00
25  1 0.23216065D-02-0.17350176D-02-0.87053523D-02-0.33434155D-02 0.91208310D-02
25  2 0.63300884D-01 0.37763633D-01-0.41061465D-02-0.29817083D-01-0.23963426D+00
25  3-0.15548687D-01 0.16344223D+00 0.13035684D+00-0.15494564D-01 0.56040253D-02
25  4 0.16195996D-02 0.68182822D+00 0.20761768D-01 0.19359846D-01-0.23216065D-02
25  5 0.17350176D-02-0.87053523D-02-0.33434155D-02-0.91208310D-02-0.63300884D-01
25  6 0.37763633D-01-0.41061465D-02 0.29817083D-01 0.23963426D+00-0.15548687D-01
25  7 0.16344223D+00-0.13035684D+00 0.15494564D-01-0.56040253D-02-0.16195996D-02
25  8-0.68182822D+00 0.20761768D-01 0.19359846D-01-0.11647996D+00 0.31900558D+00
25  9 0.11647996D+00-0.31900558D+00
26  1-0.31691074D-02-0.14413839D-02-0.35642100D-02-0.14061211D-02 0.11114050D-01
26  2-0.94543967D-01 0.27675955D-01 0.41920701D-02-0.23570222D-01 0.20124598D+00
26  3-0.20131768D-01-0.10742484D+00-0.13615897D+00-0.42608494D-02-0.21981796D-01
26  4 0.21059126D-01-0.20646175D-01-0.68231124D+00-0.81136283D-01-0.31691074D-02
26  5-0.14413839D-02 0.35642100D-02 0.14061211D-02 0.11114050D-01-0.94543967D-01
26  6-0.27675955D-01-0.41920701D-02-0.23570222D-01 0.20124598D+00 0.20131768D-01
26  7 0.10742484D+00-0.13615897D+00-0.42608494D-02-0.21981796D-01 0.21059126D-01
26  8-0.20646175D-01 0.68231124D+00 0.81136283D-01 0.41811077D-01-0.23873633D+00
26  9 0.41811077D-01-0.23873633D+00
27  1-0.37008646D-02 0.19046728D-01-0.94957331D-01 0.28157493D-01 0.33656860D-01
27  2-0.68975384D-01 0.40017730D+00-0.98202705D-01-0.12865495D+00-0.48258950D+00
27  3-0.36397511D+00 0.38465949D+00 0.34648179D+00 0.60187510D+00-0.26685792D+00
27  4-0.27512405D+00 0.47262798D-01 0.27694043D-02-0.93706542D-01-0.37008646D-02
27  5 0.19046728D-01 0.94957331D-01-0.28157493D-01 0.33656860D-01-0.68975384D-01
27  6-0.40017730D+00 0.98202705D-01-0.12865495D+00-0.48258950D+00 0.36397511D+00
27  7-0.38465949D+00 0.34648179D+00 0.60187510D+00-0.26685792D+00-0.27512405D+00
27  8 0.47262798D-01-0.27694043D-02 0.93706542D-01-0.28285293D+00 0.84530334D+00
27  9-0.28285293D+00 0.84530334D+00
28  1-0.18553872D-04-0.19755361D-03 0.73563370D-03-0.35372717D-02 0.37487156D-02
28  2-0.10334234D-02-0.28352991D-02 0.13069742D-01-0.13835440D-01 0.61216811D-02
28  3 0.22779429D-02-0.82756626D-02 0.68812985D-03-0.35469770D-02 0.61103996D+00
28  4-0.60794116D+00-0.29689341D-01-0.22264936D-01-0.83063955D-02-0.18553872D-04
28  5-0.19755361D-03-0.73563370D-03 0.35372717D-02 0.37487156D-02-0.10334234D-02
28  6 0.28352991D-02-0.13069742D-01-0.13835440D-01 0.61216811D-02-0.22779429D-02
28  7 0.82756626D-02 0.68812985D-03-0.35469770D-02 0.61103996D+00-0.60794116D+00
28  8-0.29689341D-01 0.22264936D-01 0.83063955D-02 0.13839752D-02-0.82507435D-02
28  9 0.13839752D-02-0.82507435D-02
29  1-0.44612795D-03 0.50743549D-03 0.11152451D-02-0.63122693D-02 0.11575338D-02
29  2-0.11756349D-01-0.48476661D-02 0.23558283D-01-0.47285108D-02 0.48359996D-01
29  3 0.11670887D-02-0.30630396D-01-0.25538679D-01-0.62865257D-02 0.61750137D+00
29  4-0.60911090D+00-0.15207542D-02 0.53504525D-02 0.24979931D-01 0.44612795D-03
29  5-0.50743549D-03 0.11152451D-02-0.63122693D-02-0.11575338D-02 0.11756349D-01
29  6-0.48476661D-02 0.23558283D-01 0.47285108D-02-0.48359996D-01 0.11670887D-02
29  7-0.30630396D-01 0.25538679D-01 0.62865257D-02-0.61750137D+00 0.60911090D+00
29  8 0.15207542D-02 0.53504525D-02 0.24979931D-01 0.26257656D-01-0.68066179D-01
29  9-0.26257656D-01 0.68066179D-01
30  1 0.86770550D-02-0.76663562D-02-0.21936942D-01 0.51010271D-01 0.44047047D-01
30  2 0.23691937D+00 0.94887967D-01-0.19024802D+00-0.15047926D+00-0.95381409D+00
30  3-0.11164447D-01 0.50773054D+00 0.55265092D+00 0.11603520D+00-0.48611644D-01
30  4-0.10821502D+00-0.45904935D-01 0.93368186D-01-0.52495618D+00-0.86770550D-02
30  5 0.76663562D-02-0.21936942D-01 0.51010271D-01-0.44047047D-01-0.23691937D+00
30  6 0.94887967D-01-0.19024802D+00 0.15047926D+00 0.95381409D+00-0.11164447D-01
30  7 0.50773054D+00-0.55265092D+00-0.11603520D+00 0.48611644D-01 0.10821502D+00
30  8 0.45904935D-01 0.93368186D-01-0.52495618D+00-0.48394721D+00 0.12933304D+01
30  9 0.48394721D+00-0.12933304D+01
31  1 0.17355755D-01-0.49176657D-02 0.44955012D-01 0.28277735D-01 0.34677263D-01
31  2 0.48704512D+00-0.24702804D+00-0.97157273D-01-0.13366653D+00-0.95060397D+00
31  3 0.16566975D+00 0.54549435D+00 0.49257097D+00-0.17985311D+00 0.86390797D-01
31  4 0.88042536D-01 0.12572841D+00 0.43134679D-01-0.57300774D+00 0.17355755D-01
31  5-0.49176657D-02-0.44955012D-01-0.28277735D-01 0.34677263D-01 0.48704512D+00
31  6 0.24702804D+00 0.97157273D-01-0.13366653D+00-0.95060397D+00-0.16566975D+00
31  7-0.54549435D+00 0.49257097D+00-0.17985311D+00 0.86390797D-01 0.88042536D-01
31  8 0.12572841D+00-0.43134679D-01 0.57300774D+00-0.33756676D+00 0.12266017D+01
31  9-0.33756676D+00 0.12266017D+01
32  1 0.13472429D-02-0.44360993D-03 0.41767019D-02 0.47247519D-02 0.18005077D-01
32  2 0.36213259D-01-0.13884667D-01-0.18315296D-01-0.10533352D+00-0.17905168D+00
32  3 0.21021038D-01 0.84836702D-01 0.31727656D+00 0.14929427D-01 0.29028457D-03
32  4-0.15903653D-01 0.14180130D-01-0.72534059D+00-0.70512979D-01-0.13472429D-02
32  5 0.44360993D-03 0.41767019D-02 0.47247519D-02-0.18005077D-01-0.36213259D-01
32  6-0.13884667D-01-0.18315296D-01 0.10533352D+00 0.17905168D+00 0.21021038D-01
32  7 0.84836702D-01-0.31727656D+00-0.14929427D-01-0.29028457D-03 0.15903653D-01
32  8-0.14180130D-01-0.72534059D+00-0.70512979D-01-0.82398231D-01 0.22650278D+00
32  9 0.82398231D-01-0.22650278D+00
33  1 0.31583843D-02 0.26320430D-02 0.89581897D-02 0.18272734D-01 0.52271988D-02
33  2 0.96751244D-01-0.49657135D-01-0.10749625D+00-0.21631126D-01-0.24837623D+00
33  3 0.20507452D-01 0.38041511D+00 0.13488231D+00 0.25080571D-01-0.34012548D-01
33  4 0.17041151D-01-0.71816271D+00 0.29620421D-01-0.11103482D+00 0.31583843D-02
33  5 0.26320430D-02-0.89581897D-02-0.18272734D-01 0.52271988D-02 0.96751244D-01
33  6 0.49657135D-01 0.10749625D+00-0.21631126D-01-0.24837623D+00-0.20507452D-01
33  7-0.38041511D+00 0.13488231D+00 0.25080571D-01-0.34012548D-01 0.17041151D-01
33  8-0.71816271D+00-0.29620421D-01 0.11103482D+00-0.81656628D-01 0.34082417D+00
33  9-0.81656628D-01 0.34082417D+00
34  1-0.55748459D-02-0.86495625D-01 0.49978634D-02 0.25903044D-01 0.27044984D-01
34  2-0.40643344D+00 0.21334133D-01-0.86037368D-01-0.85263173D-01 0.15751648D+01
34  3-0.91985724D+00-0.62405569D-01-0.84787881D-01 0.54437385D+00-0.33056998D+00
34  4-0.33340717D+00-0.45138730D-01-0.46183005D-03 0.41370221D+00 0.55748459D-02
34  5 0.86495625D-01 0.49978634D-02 0.25903044D-01-0.27044984D-01 0.40643344D+00
34  6 0.21334133D-01-0.86037368D-01 0.85263173D-01-0.15751648D+01-0.91985724D+00
34  7-0.62405569D-01 0.84787881D-01-0.54437385D+00 0.33056998D+00 0.33340717D+00
34  8 0.45138730D-01-0.46183005D-03 0.41370221D+00-0.43408795D+00 0.99017788D-01
34  9 0.43408795D+00-0.99017788D-01
35  1 0.13589349D-01-0.43098536D-01 0.11775243D-01 0.47084420D-01 0.46138934D-01
35  2 0.28482925D+00-0.74543469D-01-0.15113105D+00-0.15998712D+00-0.42615749D+00
35  3 0.54103419D-01 0.19621948D+00 0.21819769D+00-0.23229220D+00 0.77029076D-01
35  4 0.73144049D-01-0.13167835D-01-0.84642513D-01 0.43825955D+00 0.13589349D-01
35  5-0.43098536D-01-0.11775243D-01-0.47084420D-01 0.46138934D-01 0.28482925D+00
35  6 0.74543469D-01 0.15113105D+00-0.15998712D+00-0.42615749D+00-0.54103419D-01
35  7-0.19621948D+00 0.21819769D+00-0.23229220D+00 0.77029076D-01 0.73144049D-01
35  8-0.13167835D-01 0.84642513D-01-0.43825955D+00-0.89435651D+00 0.89899009D+00
35  9-0.89435651D+00 0.89899009D+00
36  1-0.61399833D-02 0.67729660D-02 0.14781322D-01-0.35578348D-01-0.36550434D-01
36  2-0.13033052D+00-0.49262018D-01 0.12131188D+00 0.11432698D+00 0.59279337D+00
36  3-0.23332758D+00-0.11908005D+00-0.73165139D-01 0.54166409D+00-0.29453894D+00
36  4-0.29324662D+00 0.92940516D-01-0.32119489D-03-0.32124821D+00 0.61399833D-02
36  5-0.67729660D-02 0.14781322D-01-0.35578348D-01 0.36550434D-01 0.13033052D+00
36  6-0.49262018D-01 0.12131188D+00-0.11432698D+00-0.59279337D+00-0.23332758D+00
36  7-0.11908005D+00 0.73165139D-01-0.54166409D+00 0.29453894D+00 0.29324662D+00
36  8-0.92940516D-01-0.32119489D-03-0.32124821D+00 0.73814399D+00-0.59020793D+00
36  9-0.73814399D+00 0.59020793D+00
37  1 0.12028712D+00-0.47823203D+00 0.27724061D-02-0.10728811D-02-0.13727033D-02
37  2 0.50615489D+01 0.29270479D-01 0.51730572D-02 0.59243873D-02-0.32039567D+00
37  3-0.10604534D-01-0.30952334D-01-0.28249348D-01-0.20880558D+01-0.21139229D+01
37  4-0.21139540D+01 0.11589377D-02 0.15403396D-03-0.38950229D-02 0.12028712D+00
37  5-0.47823203D+00-0.27724061D-02 0.10728811D-02-0.13727033D-02 0.50615489D+01
37  6-0.29270479D-01-0.51730572D-02 0.59243873D-02-0.32039567D+00 0.10604534D-01
37  7 0.30952334D-01-0.28249348D-01-0.20880558D+01-0.21139229D+01-0.21139540D+01
37  8 0.11589377D-02-0.15403396D-03 0.38950229D-02 0.61070656D-01-0.95254023D-01
37  9 0.61070656D-01-0.95254023D-01
38  1 0.12043098D+00-0.47809158D+00 0.80656455D-03-0.23257117D-03 0.30036299D-04
38  2 0.50658730D+01-0.32665579D-01 0.10227960D-02 0.42866828D-03-0.30688593D+00
38  3-0.33919023D-01-0.25783920D-01-0.28005556D-01-0.20838724D+01-0.20886579D+01
38  4-0.20886579D+01-0.79931867D-03 0.24322210D-03 0.49000625D-02-0.12043098D+00
38  5 0.47809158D+00 0.80656455D-03-0.23257117D-03-0.30036299D-04-0.50658730D+01
38  6-0.32665579D-01 0.10227960D-02-0.42866828D-03 0.30688593D+00-0.33919023D-01
38  7-0.25783920D-01 0.28005556D-01 0.20838724D+01 0.20886579D+01 0.20886579D+01
38  8 0.79931867D-03 0.24322210D-03 0.49000625D-02 0.29427111D-01-0.73328433D-01
38  9-0.29427111D-01 0.73328433D-01
39  1-0.17710908D-01 0.54798002D-01 0.13837888D+00-0.40617208D-01-0.22096220D-01
39  2-0.29898696D+00-0.65072711D+00 0.17857387D+00 0.10609265D+00-0.53687039D+00
39  3 0.14338671D+01-0.13151508D+00-0.15133760D+00 0.23108856D-02-0.12704213D-01
39  4-0.11262078D-01 0.13998130D-01 0.46369096D-02-0.42493995D-01 0.17710908D-01
39  5-0.54798002D-01 0.13837888D+00-0.40617208D-01 0.22096220D-01 0.29898696D+00
39  6-0.65072711D+00 0.17857387D+00-0.10609265D+00 0.53687039D+00 0.14338671D+01
39  7-0.13151508D+00 0.15133760D+00-0.23108856D-02 0.12704213D-01 0.11262078D-01
39  8-0.13998130D-01 0.46369096D-02-0.42493995D-01-0.62597579D-01 0.62507285D-01
39  9 0.62597579D-01-0.62507285D-01
40  1 0.38795857D-01-0.45799419D-01-0.82640919D-01 0.27053128D-01 0.46059956D-01
40  2 0.91136927D+00 0.37003483D+00-0.13641521D+00-0.20835822D+00-0.11114391D+01
40  3-0.47732399D+00 0.35033788D+00 0.29571969D+00-0.40393544D-01 0.55588639D-01
40  4 0.55986068D-01 0.15125038D-02-0.19610528D-01 0.60974954D-01 0.38795857D-01
40  5-0.45799419D-01 0.82640919D-01-0.27053128D-01 0.46059956D-01 0.91136927D+00
40  6-0.37003483D+00 0.13641521D+00-0.20835822D+00-0.11114391D+01 0.47732399D+00
40  7-0.35033788D+00 0.29571969D+00-0.40393544D-01 0.55588639D-01 0.55986068D-01
40  8 0.15125038D-02 0.19610528D-01-0.60974954D-01 0.11272554D+00 0.16443757D+00
40  9 0.11272554D+00 0.16443757D+00
41  1 0.18241124D-01-0.65863500D-01-0.11219601D-02 0.60785059D-01 0.46797877D-01
41  2 0.26298285D+00-0.41956419D-01-0.16197665D+00-0.13147935D+00 0.47119370D+00
41  3 0.24898346D+00-0.76122236D+00-0.52109009D+00 0.87437419D-01-0.24547994D-01
41  4-0.24464642D-01-0.93846185D-02 0.27234806D-01-0.48721300D-01 0.18241124D-01
41  5-0.65863500D-01 0.11219601D-02-0.60785059D-01 0.46797877D-01 0.26298285D+00
41  6 0.41956419D-01 0.16197665D+00-0.13147935D+00 0.47119370D+00-0.24898346D+00
41  7 0.76122236D+00-0.52109009D+00 0.87437419D-01-0.24547994D-01-0.24464642D-01
41  8-0.93846185D-02-0.27234806D-01 0.48721300D-01-0.10580318D+00-0.11159839D+01
41  9-0.10580318D+00-0.11159839D+01
42  1-0.10441873D-01 0.75914731D-01 0.18560515D-01-0.45969050D-01-0.60697978D-01