! Bench 3
!
! This is a second order CI calculation on triplet disilene.
! The basis is 6-31G*, with 46 AOs, and the CI has 4600 CSFs.
!
! The memory sizes are chosen to test the use of the out of
! memory algorithms for the integral transformation, the GUGA CI
! diagonalization, and so on.
!
! The final CI EIGENvalue is -580.1097061806 after 11 iters.
!
 $CONTRL SCFTYP=NONE RUNTYP=ENERGY MULT=3 UNITS=BOHR NZVAR=12 CITYP=GUGA $END
 $SYSTEM TIMLIM=2000 MEMORY=500000 $END
 $GUESS  GUESS=MOREAD NORB=46 purify=.t. $END
 $GUGDIA NWORD=200000 $END
 $CIDRT  GROUP=C2 SOCI=.TRUE. NFZC=14 NDOC=1 NALP=2 NVAL=1 NEXT=-1 $END
 $ZMAT   IZMAT(1)=1,1,2,  1,1,3,  1,2,4,  1,1,5,  1,2,6,  2,4,2,1,
                  2,3,1,2,  2,6,2,1,  2,5,1,2,  3,3,1,2,4,
                  2,5,1,3,  2,4,2,6     $END
 $DATA
Triplet disilene......SOCI/6-31G(D)//MCSCF/3-21G(D)...Pople exponent
Cn   2

Si   14.    2.2257660024        0.0607853108       -0.0659356966
   N31 6
   D 1
    1 0.45 1.0

H     1.    3.3590889686        1.3621444751        2.1314471236
   N31 6

H     1.    3.3349281902       -2.4897916407       -0.3009332541
   N31 6

 $END
! MCSCF MOS
 $VEC
 1  1 0.70487569E+00 0.86510187E-02 0.61997426E-04 0.57651170E-05 0.54485819E-05
 1  2-0.15725192E-01-0.50770307E-03-0.25827749E-04-0.18688661E-04 0.57572950E-02
 1  3 0.15462824E-02 0.54273444E-04 0.57290669E-06 0.48218956E-02 0.49977999E-02
 1  4 0.50127508E-02 0.21281457E-06 0.12967532E-04 0.19431261E-04-0.70487569E+00
 1  5-0.86510187E-02 0.61997426E-04 0.57651170E-05-0.54485819E-05 0.15725192E-01
 1  6-0.50770307E-03-0.25827749E-04 0.18688661E-04-0.57572950E-02 0.15462824E-02
 1  7 0.54273444E-04-0.57290668E-06-0.48218956E-02-0.49977999E-02-0.50127508E-02
 1  8-0.21281457E-06 0.12967532E-04 0.19431261E-04 0.10098203E-03-0.48530057E-04
 1  9-0.10098203E-03 0.48530057E-04 0.10827861E-03-0.71094209E-04-0.10827861E-03
 1 10 0.71094209E-04
 2  1-0.70491371E+00-0.85907697E-02 0.21234028E-04-0.72615799E-05-0.11258014E-04
 2  2 0.14080810E-01-0.19262373E-03 0.20858957E-04 0.41588945E-04-0.26708382E-02
 2  3-0.11011040E-03 0.19047454E-04 0.14235211E-04-0.48038447E-02-0.45931654E-02
 2  4-0.46243296E-02-0.17452519E-04-0.26244746E-04-0.39317405E-04-0.70491371E+00
 2  5-0.85907697E-02-0.21234028E-04 0.72615799E-05-0.11258014E-04 0.14080810E-01
 2  6 0.19262373E-03-0.20858957E-04 0.41588945E-04-0.26708382E-02 0.11011040E-03
 2  7-0.19047454E-04 0.14235211E-04-0.48038447E-02-0.45931654E-02-0.46243296E-02
 2  8-0.17452519E-04 0.26244746E-04 0.39317405E-04-0.13999513E-03 0.10192250E-04
 2  9-0.13999513E-03 0.10192250E-04-0.13574476E-03 0.14154394E-04-0.13574476E-03
 2 10 0.14154394E-04
 3  1-0.18957292E+00 0.72825730E+00-0.68128893E-03-0.16294203E-03-0.27996253E-03
 3  2 0.36892139E-02 0.15029935E-02-0.71036977E-04-0.12627565E-03-0.50628096E-03
 3  3 0.16849488E-03-0.84734053E-05-0.34021289E-04 0.22135035E-02 0.18898764E-02
 3  4 0.19261092E-02 0.37836998E-04 0.27429146E-04 0.33900770E-04-0.18957292E+00
 3  5 0.72825730E+00 0.68128893E-03 0.16294203E-03-0.27996253E-03 0.36892139E-02
 3  6-0.15029935E-02 0.71036977E-04-0.12627565E-03-0.50628096E-03-0.16849488E-03
 3  7 0.84734053E-05-0.34021289E-04 0.22135035E-02 0.18898764E-02 0.19261092E-02
 3  8 0.37836998E-04-0.27429146E-04-0.33900770E-04 0.12498015E-03-0.28331928E-03
 3  9 0.12498015E-03-0.28331928E-03 0.11221515E-03-0.34167313E-03 0.11221515E-03
 3 10-0.34167313E-03
 4  1 0.18969205E+00-0.72883164E+00 0.12524699E-03 0.22454655E-03 0.38110572E-03
 4  2-0.28470333E-02-0.71781942E-04-0.82218636E-04-0.12084002E-03 0.18644726E-02
 4  3 0.50426032E-03 0.43985802E-05-0.42883883E-04-0.18686381E-02-0.18730337E-02
 4  4-0.18644346E-02-0.77881728E-05-0.69618694E-05 0.11734187E-04-0.18969205E+00
 4  5 0.72883164E+00 0.12524699E-03 0.22454655E-03-0.38110572E-03 0.28470333E-02
 4  6-0.71781942E-04-0.82218636E-04 0.12084002E-03-0.18644726E-02 0.50426032E-03
 4  7 0.43985802E-05 0.42883883E-04 0.18686381E-02 0.18730337E-02 0.18644346E-02
 4  8 0.77881728E-05-0.69618694E-05 0.11734187E-04-0.31416419E-03-0.25319591E-04
 4  9 0.31416419E-03 0.25319591E-04-0.30389592E-03-0.30865695E-04 0.30389592E-03
 4 10 0.30865695E-04
 5  1-0.21450068E-04 0.18507918E-04 0.28091381E+00 0.32649255E+00 0.55626796E+00
 5  2 0.56550620E-03 0.59622599E-02 0.62342198E-02 0.10292063E-01 0.47941391E-03
 5  3-0.13837728E-02-0.20205449E-02-0.24092755E-02 0.25925253E-03 0.78875389E-04
 5  4 0.28948292E-04 0.75659917E-04-0.14517230E-03-0.10015354E-03-0.21450068E-04
 5  5 0.18507918E-04-0.28091381E+00-0.32649255E+00 0.55626796E+00 0.56550620E-03
 5  6-0.59622599E-02-0.62342198E-02 0.10292063E-01 0.47941391E-03 0.13837728E-02
 5  7 0.20205449E-02-0.24092755E-02 0.25925253E-03 0.78875389E-04 0.28948292E-04
 5  8 0.75659917E-04 0.14517230E-03 0.10015354E-03 0.12940820E-03-0.23533491E-03
 5  9 0.12940820E-03-0.23533491E-03 0.79358738E-04-0.14077627E-03 0.79358738E-04
 5 10-0.14077627E-03
 6  1-0.99244308E-04 0.36982693E-03 0.16581160E+00 0.40126632E+00 0.55367247E+00
 6  2 0.15419538E-04 0.33489543E-02 0.75263709E-02 0.10706032E-01 0.31149192E-03
 6  3-0.95918896E-03-0.16532279E-02-0.31728316E-02 0.26968692E-03 0.13415813E-03
 6  4-0.40743911E-04-0.13463675E-03 0.89080273E-04-0.15348038E-03 0.99244308E-04
 6  5-0.36982693E-03 0.16581160E+00 0.40126632E+00-0.55367247E+00-0.15419538E-04
 6  6 0.33489543E-02 0.75263709E-02-0.10706032E-01-0.31149192E-03-0.95918896E-03
 6  7-0.16532279E-02 0.31728316E-02-0.26968692E-03-0.13415813E-03 0.40743911E-04
 6  8 0.13463675E-03 0.89080273E-04-0.15348038E-03 0.23852262E-03-0.27595269E-03
 6  9-0.23852262E-03 0.27595269E-03 0.32586471E-03-0.37996402E-03-0.32586471E-03
 6 10 0.37996402E-03
 7  1 0.11853515E-04-0.50022975E-04-0.44553668E-01 0.57480405E+00-0.40319098E+00
 7  2-0.21135502E-04-0.86888175E-03 0.10963936E-01-0.79448195E-02 0.64398842E-04
 7  3 0.28161666E-03-0.22055845E-02 0.19925978E-02-0.21926466E-04 0.24161742E-03
 7  4-0.22624952E-03-0.41345868E-03 0.66721172E-04 0.13155527E-03-0.11853515E-04
 7  5 0.50022975E-04-0.44553668E-01 0.57480405E+00 0.40319099E+00 0.21135502E-04
 7  6-0.86888175E-03 0.10963936E-01 0.79448195E-02-0.64398842E-04 0.28161666E-03
 7  7-0.22055845E-02-0.19925978E-02 0.21926466E-04-0.24161742E-03 0.22624952E-03
 7  8 0.41345868E-03 0.66721172E-04 0.13155527E-03-0.56888510E-03 0.47712387E-03
 7  9 0.56888510E-03-0.47712387E-03 0.57661807E-03-0.39495395E-03-0.57661807E-03
 7 10 0.39495395E-03
 8  1-0.11943278E-04 0.57423643E-04-0.15787393E-01-0.60301664E+00 0.36198223E+00
 8  2-0.11249519E-03-0.38299950E-03-0.11894859E-01 0.69311174E-02-0.12063049E-03
 8  3 0.70665707E-04 0.28690369E-02-0.13735555E-02 0.10640240E-05-0.24846441E-03
 8  4 0.26571927E-03 0.10545266E-03-0.26852832E-03-0.13408327E-03-0.11943278E-04
 8  5 0.57423643E-04 0.15787393E-01 0.60301664E+00 0.36198223E+00-0.11249519E-03
 8  6 0.38299950E-03 0.11894859E-01 0.69311174E-02-0.12063049E-03-0.70665708E-04
 8  7-0.28690369E-02-0.13735554E-02 0.10640240E-05-0.24846441E-03 0.26571927E-03
 8  8 0.10545266E-03 0.26852832E-03 0.13408327E-03 0.57042468E-03-0.43690559E-03
 8  9 0.57042468E-03-0.43690559E-03-0.57005147E-03 0.61662554E-03-0.57005146E-03
 8 10 0.61662554E-03
 9  1-0.24103606E-03 0.10922758E-02-0.64361169E+00 0.15713049E+00 0.23358419E+00
 9  2-0.26993645E-02-0.14626168E-01 0.33404445E-02 0.48179095E-02-0.13323871E-03
 9  3 0.25888525E-02-0.49983157E-03-0.72453499E-03-0.34722755E-03 0.66101178E-03
 9  4 0.35561258E-03-0.40874793E-04-0.14646553E-03-0.30332680E-03-0.24103606E-03
 9  5 0.10922758E-02 0.64361169E+00-0.15713049E+00 0.23358419E+00-0.26993645E-02
 9  6 0.14626168E-01-0.33404445E-02 0.48179095E-02-0.13323871E-03-0.25888525E-02
 9  7 0.49983157E-03-0.72453499E-03-0.34722755E-03 0.66101178E-03 0.35561258E-03
 9  8-0.40874793E-04 0.14646553E-03 0.30332680E-03 0.68399783E-03-0.14834780E-03
 9  9 0.68399783E-03-0.14834780E-03 0.73702259E-03-0.24223669E-03 0.73702259E-03
 9 10-0.24223669E-03
10  1-0.92397666E-05 0.17260191E-03 0.68236570E+00-0.59963272E-01-0.16083893E+00
10  2 0.17411501E-02 0.14010300E-01-0.10710811E-02-0.31276566E-02-0.38619260E-02
10  3-0.46804427E-02 0.16036927E-03 0.61897881E-03 0.34197689E-03-0.68685132E-03
10  4-0.58777592E-03 0.37910705E-04-0.12534920E-05 0.18719857E-03 0.92397666E-05
10  5-0.17260191E-03 0.68236570E+00-0.59963272E-01 0.16083893E+00-0.17411501E-02
10  6 0.14010300E-01-0.10710811E-02 0.31276566E-02 0.38619260E-02-0.46804427E-02
10  7 0.16036927E-03-0.61897881E-03-0.34197689E-03 0.68685132E-03 0.58777592E-03
10  8-0.37910705E-04-0.12534919E-05 0.18719857E-03-0.36036472E-03 0.49254287E-03
10  9 0.36036472E-03-0.49254287E-03-0.30599264E-03 0.34902873E-03 0.30599264E-03
10 10-0.34902873E-03
11  1 0.29833638E-01-0.14741466E+00 0.53652970E-01-0.22043719E-01-0.38507718E-01
11  2 0.26628178E+00-0.14462228E+00 0.55291435E-01 0.95998057E-01 0.54066555E-01
11  3-0.25398089E-01 0.35442807E-02 0.12032280E-01-0.30680904E-02 0.34479251E-01
11  4 0.13185182E-01-0.10488756E-01-0.13481436E-01-0.24922390E-01 0.29833638E-01
11  5-0.14741466E+00-0.53652970E-01 0.22043719E-01-0.38507718E-01 0.26628178E+00
11  6 0.14462228E+00-0.55291435E-01 0.95998057E-01 0.54066555E-01 0.25398089E-01
11  7-0.35442807E-02 0.12032280E-01-0.30680904E-02 0.34479251E-01 0.13185182E-01
11  8-0.10488756E-01 0.13481436E-01 0.24922390E-01 0.14302378E+00 0.13924652E+00
11  9 0.14302378E+00 0.13924652E+00 0.14275807E+00 0.14546551E+00 0.14275807E+00
11 10 0.14546551E+00
12  1-0.33092199E-01 0.16307611E+00-0.46429711E-01 0.22777925E-01 0.31761774E-01
12  2-0.31467979E+00 0.11633311E+00-0.56546436E-01-0.79882498E-01-0.10664178E+00
12  3-0.13319331E-01-0.74045871E-02-0.60476593E-02 0.10492436E-01-0.34610745E-01
12  4-0.13895517E-01 0.84436741E-02 0.15828876E-01 0.24524781E-01 0.33092199E-01
12  5-0.16307611E+00-0.46429711E-01 0.22777925E-01-0.31761774E-01 0.31467979E+00
12  6 0.11633311E+00-0.56546436E-01 0.79882498E-01 0.10664178E+00-0.13319331E-01
12  7-0.74045871E-02 0.60476593E-02-0.10492436E-01 0.34610745E-01 0.13895517E-01
12  8-0.84436741E-02 0.15828876E-01 0.24524781E-01-0.13808246E+00-0.13165639E+00
12  9 0.13808246E+00 0.13165639E+00-0.13981486E+00-0.12872982E+00 0.13981486E+00
12 10 0.12872982E+00
13  1 0.10266204E-02-0.48159174E-02 0.75691431E-03 0.10278312E+00-0.58338739E-01
13  2 0.11148977E-01-0.19497396E-02-0.26013531E+00 0.14969644E+00-0.45265517E-02
13  3-0.14759490E-02-0.32061653E-01 0.16393115E-01 0.54918306E-03-0.37637686E-01
13  4 0.37911417E-01 0.32751347E-01-0.26905452E-01-0.21491361E-01-0.10266204E-02
13  5 0.48159174E-02 0.75691431E-03 0.10278312E+00 0.58338739E-01-0.11148977E-01
13  6-0.19497396E-02-0.26013531E+00-0.14969644E+00 0.45265517E-02-0.14759490E-02
13  7-0.32061653E-01-0.16393115E-01-0.54918306E-03 0.37637686E-01-0.37911417E-01
13  8-0.32751347E-01-0.26905452E-01-0.21491361E-01 0.16475092E+00 0.20129637E+00
13  9-0.16475092E+00-0.20129637E+00-0.16094145E+00-0.19026210E+00 0.16094145E+00
13 10 0.19026210E+00
14  1-0.66182014E-03 0.33209652E-02-0.94440756E-03 0.95606600E-01-0.66163485E-01
14  2-0.55341575E-02 0.32057853E-02-0.24535033E+00 0.16726555E+00 0.31376438E-02
14  3-0.60088065E-04-0.23034760E-01 0.18866665E-01 0.43076016E-03-0.40631976E-01
14  4 0.39533428E-01 0.43251948E-01-0.21322984E-01-0.20536763E-01-0.66182014E-03
14  5 0.33209652E-02 0.94440756E-03-0.95606600E-01-0.66163485E-01-0.55341575E-02
14  6-0.32057853E-02 0.24535033E+00 0.16726555E+00 0.31376438E-02 0.60088065E-04
14  7 0.23034760E-01 0.18866665E-01 0.43076016E-03-0.40631976E-01 0.39533428E-01
14  8 0.43251948E-01 0.21322984E-01 0.20536763E-01 0.16420618E+00 0.20149280E+00
14  9 0.16420618E+00 0.20149280E+00-0.16939467E+00-0.21548628E+00-0.16939467E+00
14 10-0.21548628E+00
15  1-0.29230171E-01 0.13699496E+00 0.13566215E+00-0.21535358E-01-0.35072775E-01
15  2-0.31490298E+00-0.35234016E+00 0.58626327E-01 0.93824948E-01-0.10790465E+00
15  3-0.53751059E-01 0.18020703E-01 0.29613097E-01-0.64950221E-01 0.28864248E-01
15  4 0.14075019E-01-0.99473243E-02-0.43890374E-02-0.13294733E-01-0.29230171E-01
15  5 0.13699496E+00-0.13566215E+00 0.21535358E-01-0.35072775E-01-0.31490298E+00
15  6 0.35234016E+00-0.58626327E-01 0.93824948E-01-0.10790465E+00 0.53751059E-01
15  7-0.18020703E-01 0.29613097E-01-0.64950221E-01 0.28864248E-01 0.14075019E-01
15  8-0.99473243E-02 0.43890374E-02 0.13294733E-01 0.42635056E-01 0.85019799E-01
15  9 0.42635056E-01 0.85019799E-01 0.52593511E-01 0.10804899E+00 0.52593511E-01
15 10 0.10804899E+00
16  1 0.77084686E-02-0.38515495E-01 0.84878105E-01 0.70680332E-01 0.11464248E+00
16  2 0.90575526E-01-0.25021741E+00-0.20735433E+00-0.33608857E+00 0.14515702E+00
16  3-0.10359043E+00-0.12450750E+00-0.18972598E+00-0.29267526E-01 0.22072219E-02
16  4 0.28928788E-01 0.16783579E-01-0.10469518E-01 0.18597554E-01 0.77084686E-02
16  5-0.38515495E-01-0.84878105E-01-0.70680332E-01 0.11464248E+00 0.90575526E-01
16  6 0.25021741E+00 0.20735433E+00-0.33608857E+00 0.14515702E+00 0.10359043E+00
16  7 0.12450750E+00-0.18972598E+00-0.29267526E-01 0.22072219E-02 0.28928788E-01
16  8 0.16783579E-01 0.10469518E-01-0.18597554E-01-0.47182163E-03 0.20613047E-02
16  9-0.47182163E-03 0.20613047E-02-0.36163434E-01-0.75936056E-01-0.36163434E-01
16 10-0.75936056E-01
17  1 0.19141401E-01-0.97546892E-01 0.23423758E-01 0.76486868E-01 0.11812529E+00
17  2 0.19873260E+00-0.85710838E-01-0.22452506E+00-0.34615880E+00 0.39474783E+00
17  3 0.34217097E-01-0.12411432E+00-0.20646439E+00-0.11119150E-01 0.48341038E-02
17  4 0.20261551E-01-0.80197680E-02 0.30690386E-01 0.36065789E-01-0.19141401E-01
17  5 0.97546892E-01 0.23423758E-01 0.76486868E-01-0.11812529E+00-0.19873260E+00
17  6-0.85710838E-01-0.22452506E+00 0.34615880E+00-0.39474783E+00 0.34217097E-01
17  7-0.12411432E+00 0.20646439E+00 0.11119150E-01-0.48341038E-02-0.20261551E-01
17  8 0.80197680E-02 0.30690386E-01 0.36065789E-01-0.71597444E-01-0.17434733E+00
17  9 0.71597444E-01 0.17434733E+00-0.29744693E-01-0.83383665E-01 0.29744693E-01
17 10 0.83383665E-01
18  1-0.38255372E-01 0.13551118E+00 0.22077574E+00 0.98432220E-02 0.12047798E-01
18  2-0.72419751E+00-0.89569491E+00-0.33260906E-01-0.36906746E-01 0.28481967E+00
18  3 0.13132756E+00-0.40955448E-01-0.65131066E-01-0.18309837E+00 0.10513540E+00
18  4 0.83085720E-01-0.11117990E-01-0.40017577E-02-0.24429901E-01 0.38255372E-01
18  5-0.13551118E+00 0.22077574E+00 0.98432220E-02-0.12047798E-01 0.72419751E+00
18  6-0.89569491E+00-0.33260906E-01 0.36906746E-01-0.28481967E+00 0.13132756E+00
18  7-0.40955448E-01 0.65131066E-01 0.18309837E+00-0.10513540E+00-0.83085720E-01
18  8 0.11117990E-01-0.40017577E-02-0.24429901E-01 0.36557606E-01 0.27910038E-01
18  9-0.36557606E-01-0.27910038E-01 0.43125367E-01 0.50058036E-01-0.43125367E-01
18 10-0.50058036E-01
19  1-0.41906225E-01 0.50725930E-01-0.25382264E-01 0.88602805E-02 0.13212948E-01
19  2-0.12460330E+01 0.40040770E-01-0.44128411E-01-0.56813114E-01 0.12891674E+01
19  3-0.61083692E-01 0.26991171E+00 0.67670834E-01-0.53836977E-01 0.38362016E-01
19  4 0.70533164E-01-0.36101264E-03 0.98870919E-02 0.15944029E-01-0.41906225E-01
19  5 0.50725930E-01 0.25382264E-01-0.88602805E-02 0.13212948E-01-0.12460330E+01
19  6-0.40040770E-01 0.44128411E-01-0.56813114E-01 0.12891674E+01 0.61083692E-01
19  7-0.26991171E+00 0.67670834E-01-0.53836977E-01 0.38362016E-01 0.70533164E-01
19  8-0.36101264E-03-0.98870919E-02-0.15944029E-01-0.24118217E-01-0.71431197E-01
19  9-0.24118217E-01-0.71431197E-01-0.27320400E-01-0.23024544E+00-0.27320400E-01
19 10-0.23024544E+00
20  1 0.22746725E-01-0.95953908E-01 0.14078417E+00-0.10443027E-01 0.86979102E-03
20  2 0.37541070E+00-0.70478006E+00 0.36683329E-01-0.34276049E-01 0.15179631E+01
20  3 0.11996878E+01 0.11388649E+00 0.69849122E+00 0.11249255E-01-0.17140415E-01
20  4-0.86078387E-02 0.13626427E-01-0.94345007E-02 0.44742659E-01-0.22746725E-01
20  5 0.95953908E-01 0.14078417E+00-0.10443027E-01-0.86979102E-03-0.37541070E+00
20  6-0.70478006E+00 0.36683329E-01 0.34276049E-01-0.15179631E+01 0.11996878E+01
20  7 0.11388649E+00-0.69849122E+00-0.11249255E-01 0.17140415E-01 0.86078387E-02
20  8-0.13626427E-01-0.94345007E-02 0.44742659E-01-0.15644027E-01-0.64490716E+00
20  9 0.15644027E-01 0.64490716E+00-0.18181279E-01-0.47294441E+00 0.18181279E-01
20 10 0.47294441E+00
21  1 0.12338695E-01-0.70842748E-01 0.13811813E+00 0.27299705E-01 0.32641816E-01
21  2 0.14115924E+00-0.71720603E+00-0.14310716E+00-0.16664300E+00 0.29978513E+00
21  3 0.58066394E+00 0.67675798E+00 0.31625067E+00-0.11784055E+00 0.61207770E-02
21  4 0.79734365E-01-0.62901371E-02 0.30754681E-01 0.37869950E-01 0.12338695E-01
21  5-0.70842748E-01-0.13811813E+00-0.27299705E-01 0.32641816E-01 0.14115924E+00
21  6 0.71720603E+00 0.14310716E+00-0.16664300E+00 0.29978513E+00-0.58066394E+00
21  7-0.67675798E+00 0.31625067E+00-0.11784055E+00 0.61207770E-02 0.79734365E-01
21  8-0.62901371E-02-0.30754681E-01-0.37869950E-01-0.46227329E-01-0.30285116E+00
21  9-0.46227329E-01-0.30285116E+00-0.39145726E-01-0.57311866E+00-0.39145726E-01
21 10-0.57311866E+00
22  1-0.73618042E-02-0.52190964E-02-0.52341590E-02 0.18664811E+00-0.42117114E-02
22  2-0.27034925E+00 0.87083723E-02-0.88427010E+00 0.11822579E-01 0.84283269E+00
22  3 0.40040551E+00 0.60003436E+00 0.25544589E+00-0.33767401E-02-0.27406671E-02
22  4 0.49970509E-02-0.58249560E-01-0.72525275E-02 0.11711734E-01 0.73618042E-02
22  5 0.52190964E-02-0.52341590E-02 0.18664811E+00 0.42117114E-02 0.27034925E+00
22  6 0.87083723E-02-0.88427010E+00-0.11822579E-01-0.84283269E+00 0.40040551E+00
22  7 0.60003436E+00-0.25544589E+00 0.33767401E-02 0.27406671E-02-0.49970509E-02
22  8 0.58249560E-01-0.72525275E-02 0.11711734E-01 0.87511640E-02-0.25337563E+00
22  9-0.87511640E-02 0.25337563E+00-0.95426299E-02 0.18586601E+00 0.95426299E-02
22 10-0.18586601E+00
23  1-0.11093494E-02 0.18819623E-01-0.35825732E-01-0.32224498E-01 0.18270692E+00
23  2 0.49325231E-01 0.18459763E+00 0.14828970E+00-0.86720815E+00-0.29620543E+00
23  3-0.62243420E-01-0.56746586E-01 0.57199546E+00 0.24200713E-01-0.14507973E-01
23  4-0.23116046E-01-0.74638016E-02-0.72863606E-01-0.12765587E-01-0.11093494E-02
23  5 0.18819623E-01 0.35825732E-01 0.32224498E-01 0.18270692E+00 0.49325231E-01
23  6-0.18459763E+00-0.14828970E+00-0.86720815E+00-0.29620543E+00 0.62243420E-01
23  7 0.56746586E-01 0.57199546E+00 0.24200713E-01-0.14507973E-01-0.23116046E-01
23  8-0.74638016E-02 0.72863606E-01 0.12765587E-01 0.23944070E-02 0.37806708E+00
23  9 0.23944070E-02 0.37806708E+00 0.18185690E-01 0.69006759E-01 0.18185690E-01
23 10 0.69006759E-01
24  1-0.27876391E-01-0.34884401E-01-0.24788374E-01-0.36765317E-01 0.12070083E+00
24  2-0.11111384E+01 0.57278900E-01 0.17337878E+00-0.56820880E+00 0.35352357E+01
24  3 0.14386238E+01 0.69299858E-01 0.87239983E+00-0.28215197E-01 0.21388428E-01
24  4 0.40865848E-01 0.34542124E-01 0.69619928E-02 0.34510339E-01 0.27876391E-01
24  5 0.34884401E-01-0.24788374E-01-0.36765317E-01-0.12070083E+00 0.11111384E+01
24  6 0.57278900E-01 0.17337878E+00 0.56820880E+00-0.35352357E+01 0.14386238E+01
24  7 0.69299858E-01-0.87239983E+00 0.28215197E-01-0.21388428E-01-0.40865848E-01
24  8-0.34542124E-01 0.69619928E-02 0.34510339E-01-0.59270527E-02-0.20024820E+00
24  9 0.59270527E-02 0.20024820E+00-0.56492007E-02-0.38624599E+00 0.56492007E-02
24 10 0.38624599E+00
25  1 0.78751837E-03-0.18740641E-01 0.38283179E-01-0.20216265E+00-0.13837675E-01
25  2-0.60136324E-01-0.19794547E+00 0.94490608E+00 0.67023943E-01 0.35387317E+00
25  3 0.51315039E-01-0.60396244E+00-0.10368804E+00-0.18239068E-01-0.16277587E-01
25  4 0.49336387E-01-0.10318827E-01 0.82879238E-02 0.14742574E-01 0.78751837E-03
25  5-0.18740641E-01-0.38283179E-01 0.20216265E+00-0.13837675E-01-0.60136324E-01
25  6 0.19794547E+00-0.94490608E+00 0.67023943E-01 0.35387317E+00-0.51315039E-01
25  7 0.60396244E+00-0.10368804E+00-0.18239068E-01-0.16277587E-01 0.49336387E-01
25  8-0.10318827E-01-0.82879238E-02-0.14742574E-01-0.19507780E-01 0.25246186E-01
25  9-0.19507780E-01 0.25246186E-01-0.37220243E-02-0.55241046E+00-0.37220243E-02
25 10-0.55241046E+00
26  1-0.18186276E-01-0.59145043E-01 0.64314167E-02-0.19040950E-01-0.16085521E+00
26  2-0.89635854E+00-0.84392265E-01 0.94415297E-01 0.75550325E+00 0.35187959E+01
26  3 0.12644141E+01-0.56452173E-02-0.37672778E+00-0.10432595E-01 0.21409476E-01
26  4 0.43585319E-01 0.20390720E-01-0.99315790E-03 0.65103357E-01 0.18186276E-01
26  5 0.59145043E-01 0.64314167E-02-0.19040950E-01 0.16085521E+00 0.89635854E+00
26  6-0.84392265E-01 0.94415297E-01-0.75550325E+00-0.35187959E+01 0.12644141E+01
26  7-0.56452173E-02 0.37672778E+00 0.10432595E-01-0.21409476E-01-0.43585319E-01
26  8-0.20390720E-01-0.99315790E-03 0.65103357E-01-0.65320047E-02-0.69978228E+00
26  9 0.65320047E-02 0.69978228E+00-0.14495520E-01-0.43013526E+00 0.14495520E-01
26 10 0.43013526E+00
27  1-0.19678175E-02-0.25801054E-02 0.21686406E-01-0.81431316E-03-0.28099561E-01
27  2-0.91316492E-01-0.11877538E+00-0.72877887E-02 0.12987900E+00 0.26237436E+00
27  3 0.11635677E-01-0.14087980E+00 0.11235182E+00 0.99605058E-01 0.62532508E-01
27  4-0.13615531E+00 0.16343656E-01-0.62548742E+00 0.22697226E+00-0.19678175E-02
27  5-0.25801054E-02-0.21686406E-01 0.81431316E-03-0.28099561E-01-0.91316492E-01
27  6 0.11877538E+00 0.72877887E-02 0.12987900E+00 0.26237436E+00-0.11635677E-01
27  7 0.14087980E+00 0.11235182E+00 0.99605058E-01 0.62532508E-01-0.13615531E+00
27  8 0.16343656E-01 0.62548742E+00-0.22697226E+00 0.29666587E-01-0.38898984E+00
27  9 0.29666587E-01-0.38898984E+00-0.32498205E-01 0.13510901E-01-0.32498205E-01
27 10 0.13510901E-01
28  1 0.13433070E-02 0.64691188E-02-0.38917889E-02 0.27982066E-01-0.53827739E-03
28  2 0.76360495E-01 0.23318260E-01-0.13781189E+00 0.10145452E-01-0.40222274E+00
28  3-0.10668729E+00-0.18201476E+00 0.13320017E+00-0.34063669E-01 0.28279742E+00
28  4-0.25815583E+00 0.60860286E+00-0.10974940E-01 0.21014786E-01-0.13433070E-02
28  5-0.64691188E-02-0.38917889E-02 0.27982066E-01 0.53827739E-03-0.76360495E-01
28  6 0.23318260E-01-0.13781189E+00-0.10145452E-01 0.40222274E+00-0.10668729E+00
28  7-0.18201476E+00-0.13320017E+00 0.34063669E-01-0.28279742E+00 0.25815583E+00
28  8-0.60860286E+00-0.10974940E-01 0.21014786E-01 0.28990790E-01-0.17222500E+00
28  9-0.28990790E-01 0.17222500E+00-0.42044956E-01 0.40861314E+00 0.42044956E-01
28 10-0.40861314E+00
29  1 0.11420993E-01-0.17538643E-01-0.78667457E-01 0.14564840E-02-0.37065375E-02
29  2 0.36195719E+00 0.37497263E+00 0.39293709E-02 0.23621787E-01 0.89943237E-01
29  3-0.45036405E+00 0.64556627E-01 0.65570064E-01-0.65279786E+00 0.25899255E+00
29  4 0.32828557E+00-0.49013933E-01-0.84670119E-01 0.10784192E+00 0.11420993E-01
29  5-0.17538643E-01 0.78667457E-01-0.14564840E-02-0.37065375E-02 0.36195719E+00
29  6-0.37497263E+00-0.39293709E-02 0.23621787E-01 0.89943237E-01 0.45036405E+00
29  7-0.64556627E-01 0.65570064E-01-0.65279786E+00 0.25899255E+00 0.32828557E+00
29  8-0.49013933E-01 0.84670119E-01-0.10784192E+00 0.59254402E-01-0.23218789E+00
29  9 0.59254402E-01-0.23218789E+00 0.83992831E-01-0.24833980E+00 0.83992831E-01
29 10-0.24833980E+00
30  1 0.21714058E-02 0.16825673E-01 0.94877053E-03-0.11323171E-01 0.17121740E-01
30  2 0.16148938E+00 0.23085994E-01-0.27654178E-01-0.44625604E-01-0.10791122E+01
30  3-0.14289311E+00-0.46941256E+00 0.11319609E+00 0.31713764E-01-0.49497148E+00
30  4 0.42359229E+00 0.23857045E+00-0.21786788E+00 0.23112132E+00-0.21714058E-02
30  5-0.16825673E-01 0.94877053E-03-0.11323171E-01-0.17121740E-01-0.16148938E+00
30  6 0.23085994E-01-0.27654178E-01 0.44625604E-01 0.10791122E+01-0.14289311E+00
30  7-0.46941256E+00-0.11319609E+00-0.31713764E-01 0.49497148E+00-0.42359229E+00
30  8-0.23857045E+00-0.21786788E+00 0.23112132E+00 0.15490922E+00-0.20233955E+00
30  9-0.15490922E+00 0.20233955E+00-0.26780270E+00 0.11242085E+01 0.26780270E+00
30 10-0.11242085E+01
31  1-0.10313309E-02-0.85416042E-03 0.23172931E-02-0.21373388E-01 0.65390090E-02
31  2-0.54225489E-01-0.45003479E-01 0.38110411E-01 0.33716872E-01 0.54193525E+00
31  3-0.17875612E+00-0.40839306E+00 0.36157010E+00-0.61502266E-01-0.45017977E-01
31  4 0.14309875E+00 0.24106172E+00-0.21121836E+00-0.56876095E+00-0.10313309E-02
31  5-0.85416042E-03-0.23172931E-02 0.21373388E-01 0.65390090E-02-0.54225489E-01
31  6 0.45003479E-01-0.38110411E-01 0.33716872E-01 0.54193525E+00 0.17875612E+00
31  7 0.40839306E+00 0.36157010E+00-0.61502266E-01-0.45017977E-01 0.14309875E+00
31  8 0.24106172E+00 0.21121836E+00 0.56876095E+00 0.29089100E+00-0.11196013E+01
31  9 0.29089100E+00-0.11196013E+01-0.11335413E+00 0.15577456E+00-0.11335413E+00
31 10 0.15577456E+00
32  1 0.20404027E-02 0.25024633E-01-0.20568554E-02 0.45679453E-02-0.59384477E-03
32  2 0.19400182E+00 0.42596308E-01 0.16380737E-01-0.40268113E-01-0.12771421E+01
32  3-0.16627554E+00 0.20893177E+00-0.68020606E+00 0.25724997E-01 0.13516032E+00
32  4-0.20715410E+00-0.11321951E+00-0.73459048E-01 0.66040873E+00-0.20404027E-02
32  5-0.25024633E-01-0.20568554E-02 0.45679453E-02 0.59384477E-03-0.19400182E+00
32  6 0.42596308E-01 0.16380737E-01 0.40268113E-01 0.12771421E+01-0.16627554E+00
32  7 0.20893177E+00 0.68020606E+00-0.25724997E-01-0.13516032E+00 0.20715410E+00
32  8 0.11321951E+00-0.73459048E-01 0.66040873E+00-0.16383304E+00 0.10942512E+01
32  9 0.16383304E+00-0.10942512E+01 0.90584673E-01-0.31083492E-01-0.90584673E-01
32 10 0.31083492E-01
33  1 0.11036111E-02 0.45261048E-02-0.57091005E-02-0.98798937E-02 0.30396110E-02
33  2 0.70058202E-01 0.67708301E-01-0.27854855E-01-0.17959368E-03-0.59628080E+00
33  3 0.17700760E+00-0.81327463E+00 0.83869284E-01 0.50976795E-01-0.59811372E+00
33  4 0.51359729E+00 0.11247202E+00-0.15285065E-01 0.22993080E+00 0.11036111E-02
33  5 0.45261048E-02 0.57091005E-02 0.98798937E-02 0.30396110E-02 0.70058202E-01
33  6-0.67708301E-01 0.27854855E-01-0.17959368E-03-0.59628080E+00-0.17700760E+00
33  7 0.81327463E+00 0.83869284E-01 0.50976795E-01-0.59811372E+00 0.51359729E+00
33  8 0.11247202E+00 0.15285065E-01-0.22993080E+00 0.70188277E-01-0.13360252E+00
33  9 0.70188277E-01-0.13360252E+00-0.22979972E+00 0.11743973E+01-0.22979972E+00
33 10 0.11743973E+01
34  1 0.31828413E-02-0.89057636E-02-0.27439678E-02-0.31927039E-01 0.99210479E-02
34  2 0.86803991E-01 0.41529017E-01 0.89282216E-01-0.52704719E-01-0.31231434E+00
34  3 0.60388794E-01 0.80303097E-01-0.72363506E-01-0.66224115E-01 0.22482486E+00
34  4-0.18883088E+00 0.62049659E+00 0.12984662E+00 0.21160323E+00 0.31828413E-02
34  5-0.89057636E-02 0.27439678E-02 0.31927039E-01 0.99210479E-02 0.86803991E-01
34  6-0.41529017E-01-0.89282216E-01-0.52704719E-01-0.31231434E+00-0.60388794E-01
34  7-0.80303097E-01-0.72363506E-01-0.66224115E-01 0.22482486E+00-0.18883088E+00
34  8 0.62049659E+00-0.12984662E+00-0.21160323E+00 0.32849256E-02 0.25877183E+00
34  9 0.32849256E-02 0.25877183E+00-0.19995884E+00 0.30435186E+00-0.19995884E+00
34 10 0.30435186E+00
35  1 0.38226314E-02-0.10566658E-01 0.13986479E-01 0.65593126E-02-0.26271024E-01
35  2 0.10840171E+00-0.21306410E-01-0.37435323E-01 0.49874376E-01-0.83960354E+00
35  3 0.12300673E+00-0.77579602E-01-0.21176334E+00 0.15193047E+00-0.24494555E+00
35  4 0.43187224E-01 0.10171446E+00 0.62298739E+00 0.80651453E-01-0.38226314E-02
35  5 0.10566658E-01 0.13986479E-01 0.65593126E-02 0.26271024E-01-0.10840171E+00
35  6-0.21306410E-01-0.37435323E-01-0.49874376E-01 0.83960354E+00 0.12300673E+00
35  7-0.77579602E-01 0.21176334E+00-0.15193047E+00 0.24494555E+00-0.43187224E-01
35  8-0.10171446E+00 0.62298739E+00 0.80651453E-01-0.29211133E+00 0.72059322E+00
35  9 0.29211133E+00-0.72059322E+00-0.15182860E+00 0.55914722E+00 0.15182860E+00
35 10-0.55914722E+00
36  1-0.11014128E-02-0.63094883E-01 0.61848902E-02-0.12770255E-01-0.44511117E-02
36  2-0.27322632E+00 0.21432213E-02 0.48865512E-01 0.19241829E-01 0.11499147E+01
36  3 0.83843280E+00-0.28933771E-01-0.18135975E+00 0.66194274E+00-0.22730525E+00
36  4-0.46799377E+00-0.42752723E-01-0.24329325E+00-0.13639118E+00 0.11014128E-02
36  5 0.63094883E-01 0.61848902E-02-0.12770255E-01 0.44511117E-02 0.27322632E+00
36  6 0.21432213E-02 0.48865512E-01-0.19241829E-01-0.11499147E+01 0.83843280E+00
36  7-0.28933771E-01 0.18135975E+00-0.66194274E+00 0.22730525E+00 0.46799377E+00
36  8 0.42752723E-01-0.24329325E+00-0.13639118E+00-0.23970853E+00 0.30233028E+00
36  9 0.23970853E+00-0.30233028E+00-0.27659433E+00 0.28508342E+00 0.27659433E+00
36 10-0.28508342E+00
37  1-0.16262241E-01 0.71806959E-01-0.17654587E-01 0.20517890E-01 0.33051248E-01
37  2-0.32386799E+00-0.18202524E-01-0.59114738E-01-0.99570887E-01 0.82036032E+00
37  3-0.17313284E+00 0.28332048E+00 0.20310773E+00 0.15180249E+00-0.73999393E-01
37  4 0.27664544E-01 0.12334884E+00 0.93168485E-01 0.19536774E+00-0.16262241E-01
37  5 0.71806959E-01 0.17654587E-01-0.20517890E-01 0.33051248E-01-0.32386799E+00
37  6 0.18202524E-01 0.59114738E-01-0.99570887E-01 0.82036032E+00 0.17313284E+00
37  7-0.28332048E+00 0.20310773E+00 0.15180249E+00-0.73999393E-01 0.27664544E-01
37  8 0.12334884E+00-0.93168485E-01-0.19536774E+00 0.67979356E+00-0.84741101E+00
37  9 0.67979356E+00-0.84741101E+00 0.71489202E+00-0.95343436E+00 0.71489202E+00
37 10-0.95343436E+00
38  1 0.10460493E-01-0.21026732E-01 0.52983326E-01-0.15627413E-01-0.29894162E-01
38  2 0.24522957E+00-0.20880482E+00 0.44601741E-01 0.87398695E-01-0.16069014E+01
38  3-0.23820919E+00-0.10745299E+00-0.37304579E+00-0.47500148E+00 0.30288033E+00
38  4 0.19246052E+00-0.64460393E-01-0.17928592E+00-0.10685861E+00-0.10460493E-01
38  5 0.21026732E-01 0.52983326E-01-0.15627413E-01 0.29894162E-01-0.24522957E+00
38  6-0.20880482E+00 0.44601741E-01-0.87398695E-01 0.16069014E+01-0.23820919E+00
38  7-0.10745299E+00 0.37304579E+00 0.47500148E+00-0.30288033E+00-0.19246052E+00
38  8 0.64460393E-01-0.17928592E+00-0.10685861E+00-0.66558623E+00 0.89226929E+00