! Bench 10
!
! ROHF gradient calculation on the radical cation of P2H4.
! There are 56 AOs, and the electronic state is 2-A'.
!
! This calculation is on the most stable geometric isomer,
! as found by D. Feller, E.R.Davidson, and W.T.Borden,
! J.Am.Chem.Soc. 1985, 107, 2596-2597.   The basis set is
! the Dunning/Hay double zeta set, with d's on phosphorus.
! Note that the hyrogens are scaled ala Thom Dunning.
!
! The FINAL ROHF energy is -683.4533488546 after 11 iterations.
! The Cartesian RMS gradient is 0.001315179.
!
 $CONTRL SCFTYP=ROHF MULT=2 ICHARG=1 RUNTYP=GRADIENT UNITS=ANGS NZVAR=12 $END
 $SYSTEM TIMLIM=600 MEMORY=500000 $END
 $GUESS  GUESS=MOREAD  NORB=17  $END
 $ZMAT IZMAT(1)=1,1,2,   1,2,3,   1,2,4,   1,1,5,   1,1,6,
                2,1,2,3,   2,1,2,4,   2,2,1,5,   2,2,1,6,
                2,3,2,4,   2,5,1,6,    3,3,2,1,5   
 $END
 $DATA
P2H4 CATION...ROHF/DH(D)//ROHF/3-21G*
CS

PHOSPHORUS 15.0
    DH
    D 1
    1    0.55          1.0

PHOSPHORUS 15.0     0.0               2.172
    DH
    D 1
    1    0.55          1.0

HYDROGEN    1.0     0.657737          2.675467          1.111261
    DH    0  1.2      1.2

HYDROGEN    1.0    -0.905806         -0.128949          1.054373
    DH    0  1.2      1.2

 $END
! RHF ORBITALS
 $VEC
 1  1-3.97552944E-01-6.70077549E-01-1.08461545E-02 2.38654477E-03-2.77032257E-03
 1  2 1.74879915E-04 6.69397329E-05-5.09079195E-05 0.00000000E+00-1.95414221E-05
 1  3 1.50466353E-05 0.00000000E+00 6.30357785E-06-6.29431790E-06 0.00000000E+00
 1  4-9.03698085E-06 8.79429120E-06 0.00000000E+00 8.47208989E-04 8.43606788E-04
 1  5 8.43320813E-04-3.21850687E-06 0.00000000E+00 0.00000000E+00-2.50371780E-05
 1  6-4.24374438E-05 8.56755800E-07-6.20969138E-06 1.44290100E-05-1.40466784E-05
 1  7-1.05748574E-07 7.82048211E-07 0.00000000E+00-2.37609639E-08-7.95559477E-07
 1  8 0.00000000E+00 1.83784764E-07-6.96808396E-06 0.00000000E+00 2.56238894E-06
 1  9 8.77837177E-06 0.00000000E+00-2.77782600E-06-2.50217732E-08-2.45497782E-06
 1 10-4.63233824E-07 0.00000000E+00 0.00000000E+00 1.77076537E-07-2.56125018E-06
 1 11 1.77076538E-07-2.56125019E-06 5.48416067E-06-8.92542362E-06 5.48416067E-06
 1 12-8.92542365E-06
 2  1 2.51862147E-05 4.21837257E-05 2.44453784E-06-7.23796064E-06 1.40646404E-05
 2  2-3.77454970E-06-9.08515879E-08-7.60740312E-07 0.00000000E+00-2.68893318E-07
 2  3 8.21345290E-07 0.00000000E+00 1.11794476E-06 6.88209054E-06 0.00000000E+00
 2  4-6.10209021E-06-4.89827256E-06 0.00000000E+00-3.94721840E-06-1.15063123E-06
 2  5-3.54635989E-06 2.51838732E-08 0.00000000E+00 0.00000000E+00-3.97549898E-01
 2  6-6.70073991E-01-1.08661996E-02 2.40601171E-03-2.79064310E-03 1.66412671E-04
 2  7-7.89515168E-05 2.80999106E-05 0.00000000E+00 2.23108583E-05-8.35959288E-06
 2  8 0.00000000E+00-7.12007819E-06 4.27459515E-06 0.00000000E+00 5.90870082E-06
 2  9-3.06649185E-06 0.00000000E+00 8.56603909E-04 8.50614059E-04 8.51070421E-04
 2 10-1.92388837E-06 0.00000000E+00 0.00000000E+00 5.53902528E-06-6.44283676E-06
 2 11 5.53902528E-06-6.44283675E-06-3.93458128E-07-5.36461642E-06-3.93458130E-07
 2 12-5.36461641E-06
 3  1-1.13037032E-01-3.21928282E-01 5.51480918E-01 5.61958586E-01 5.07140600E-02
 3  2-1.74794193E-02-5.44912392E-03 4.56253788E-03 0.00000000E+00-1.87550690E-03
 3  3 1.54875363E-03 0.00000000E+00-1.14715793E-03 1.03123239E-03 0.00000000E+00
 3  4 3.07713923E-03-2.58818376E-03 0.00000000E+00-4.49225165E-03-4.51678302E-03
 3  5-4.37538471E-03 1.11484852E-04 0.00000000E+00 0.00000000E+00-6.52677495E-04
 3  6-1.86518277E-03 3.27151411E-03 2.67402582E-03 9.76884221E-04 4.20630658E-03
 3  7 3.77955907E-05-3.14854662E-05 0.00000000E+00 1.76513174E-05-1.47895452E-04
 3  8 0.00000000E+00 6.41714501E-07 8.36348884E-05 0.00000000E+00-1.85377635E-04
 3  9-2.32534880E-03 0.00000000E+00-6.50780571E-04-7.32290511E-04-6.22400145E-04
 3 10 1.26482868E-04 0.00000000E+00 0.00000000E+00-1.57554100E-04-2.25007978E-05
 3 11-1.57554100E-04-2.25007978E-05-2.55968604E-04 3.48165581E-03-2.55968604E-04
 3 12 3.48165581E-03
 4  1-6.65880561E-04-1.89105238E-03 3.17161243E-03 3.82188599E-03-5.46525353E-04
 4  2-2.57318741E-03-3.78136175E-05 1.27702038E-06 0.00000000E+00-3.69221643E-05
 4  3-1.66854095E-04 0.00000000E+00 9.24243111E-05 2.71137247E-04 0.00000000E+00
 4  4-4.93255825E-04-1.69635935E-03 0.00000000E+00 4.57588974E-04 7.23759278E-04
 4  5 4.86264796E-04-1.01733032E-04 0.00000000E+00 0.00000000E+00 1.13016079E-01
 4  6 3.21870172E-01-5.51241030E-01-5.61763880E-01-5.08256327E-02 1.42312294E-02
 4  7-7.28204374E-03 3.06043936E-03 0.00000000E+00-2.60554302E-03 1.05614548E-03
 4  8 0.00000000E+00-8.80324510E-04 5.03496198E-04 0.00000000E+00 1.58227042E-03
 4  9-9.26426003E-04 0.00000000E+00 5.06790303E-03 4.93831057E-03 4.82020508E-03
 4 10-1.15110250E-04 0.00000000E+00 0.00000000E+00 3.25473330E-04-2.38204482E-03
 4 11 3.25473330E-04-2.38204482E-03 1.27383953E-04-2.74725870E-04 1.27383953E-04
 4 12-2.74725871E-04
 5  1 0.00000000E+00 0.00000000E+00 0.00000000E+00 0.00000000E+00 0.00000000E+00
 5  2 0.00000000E+00 0.00000000E+00 0.00000000E+00-9.30868079E-01 0.00000000E+00
 5  3 0.00000000E+00-2.30862553E-01 0.00000000E+00 0.00000000E+00-2.87563569E-02
 5  4 0.00000000E+00 0.00000000E+00 5.62014849E-03 0.00000000E+00 0.00000000E+00
 5  5 0.00000000E+00 0.00000000E+00 1.07508403E-03-4.27228788E-04 0.00000000E+00
 5  6 0.00000000E+00 0.00000000E+00 0.00000000E+00 0.00000000E+00 0.00000000E+00
 5  7 0.00000000E+00 0.00000000E+00-1.58080844E-03 0.00000000E+00 0.00000000E+00
 5  8-4.33892145E-04 0.00000000E+00 0.00000000E+00 1.98594179E-05 0.00000000E+00
 5  9 0.00000000E+00-4.22477577E-04 0.00000000E+00 0.00000000E+00 0.00000000E+00
 5 10 0.00000000E+00-5.58160966E-05-6.17497927E-05-1.04538351E-04 1.51505576E-04
 5 11 1.04538352E-04-1.51505576E-04-4.51612584E-04 1.41896003E-03 4.51612584E-04
 5 12-1.41896003E-03
 6  1 1.75394158E-04 5.07086577E-04-1.00624439E-03-8.24879834E-04 4.13576092E-04
 6  2 4.66418720E-04 4.62924972E-01 8.07411344E-01 0.00000000E+00 1.14841655E-01
 6  3 2.00367977E-01 0.00000000E+00 1.43144235E-02 2.48626931E-02 0.00000000E+00
 6  4-2.92887188E-03-4.46464423E-03 0.00000000E+00-9.03714396E-04 1.01351593E-03
 6  5-4.81895253E-04-2.85835136E-04 0.00000000E+00 0.00000000E+00 2.94748316E-05
 6  6 7.60659107E-05-3.18987578E-05-9.69589246E-04 2.17194823E-03 1.05974726E-03
 6  7 6.44333260E-04-1.63994405E-02 0.00000000E+00 1.69071301E-04-4.40681737E-03
 6  8 0.00000000E+00-1.38574179E-05 1.35135357E-04 0.00000000E+00 3.20090811E-04
 6  9-4.12963324E-04 0.00000000E+00-5.00614266E-04-1.61128970E-03-5.05340392E-04
 6 10-5.76407353E-05 0.00000000E+00 0.00000000E+00-1.61821939E-04 1.52281915E-04
 6 11-1.61821939E-04 1.52281915E-04 2.50437044E-04-8.85547131E-04 2.50437044E-04
 6 12-8.85547131E-04
 7  1 1.03574589E-03 3.00752776E-03-6.19966140E-03-4.33013397E-03 3.18340698E-03
 7  2-4.55123870E-03-8.08132372E-01 4.63090212E-01 0.00000000E+00-1.99556063E-01
 7  3 1.14374961E-01 0.00000000E+00-2.41828485E-02 1.39241099E-02 0.00000000E+00
 7  4 5.43967010E-03-3.05099192E-03 0.00000000E+00 5.45266995E-04 1.39408924E-04
 7  5-2.49932558E-04-6.81346772E-04 0.00000000E+00 0.00000000E+00 1.63155890E-05
 7  6 4.38373383E-05-3.91235961E-05-4.34240902E-04 8.78763519E-04 1.49417050E-03
 7  7-1.55835095E-03-1.12088383E-02 0.00000000E+00-4.38432082E-04-2.90406268E-03
 7  8 0.00000000E+00 2.83434588E-05-2.65771265E-04 0.00000000E+00-5.55426401E-04
 7  9-7.37685938E-04 0.00000000E+00-2.44224850E-04-5.83098511E-04-2.47323781E-04
 7 10-3.29565519E-05 0.00000000E+00 0.00000000E+00-5.37660868E-05 6.09195239E-05
 7 11-5.37660868E-05 6.09195239E-05-7.98130620E-05 1.88462749E-03-7.98130620E-05
 7 12 1.88462749E-03
 8  1 0.00000000E+00 0.00000000E+00 0.00000000E+00 0.00000000E+00 0.00000000E+00
 8  2 0.00000000E+00 0.00000000E+00 0.00000000E+00 1.58952839E-03 0.00000000E+00
 8  3 0.00000000E+00 3.51925356E-04 0.00000000E+00 0.00000000E+00 1.26106662E-04
 8  4 0.00000000E+00 0.00000000E+00-4.24818829E-04 0.00000000E+00 0.00000000E+00
 8  5 0.00000000E+00 0.00000000E+00-1.82497659E-05-3.84163379E-05 0.00000000E+00
 8  6 0.00000000E+00 0.00000000E+00 0.00000000E+00 0.00000000E+00 0.00000000E+00
 8  7 0.00000000E+00 0.00000000E+00-9.30764524E-01 0.00000000E+00 0.00000000E+00
 8  8-2.30910704E-01 0.00000000E+00 0.00000000E+00-2.90578929E-02 0.00000000E+00
 8  9 0.00000000E+00 6.16747918E-03 0.00000000E+00 0.00000000E+00 0.00000000E+00
 8 10 0.00000000E+00-1.19466476E-03 4.82261274E-05-4.44882162E-04 1.77272181E-03
 8 11 4.44882162E-04-1.77272181E-03-7.67979180E-05 3.67489860E-04 7.67979180E-05
 8 12-3.67489860E-04
 9  1-7.40458210E-06-1.37665136E-05-7.64853698E-05 7.42665782E-04-2.25765954E-03
 9  2 3.29384986E-04-2.08396090E-03 1.88362280E-02 0.00000000E+00-5.12351950E-04
 9  3 4.33112565E-03 0.00000000E+00-2.71506701E-05 1.11819655E-03 0.00000000E+00
 9  4-3.14622879E-04-4.03380854E-04 0.00000000E+00 2.79539714E-04 1.43872903E-03
 9  5 3.17418802E-04 6.87663053E-05 0.00000000E+00 0.00000000E+00-4.72161651E-05
 9  6-1.34805895E-04 2.30611922E-04 2.65973604E-04 7.04391701E-05-1.17849188E-03
 9  7 3.18944317E-01 8.74220278E-01 0.00000000E+00 7.90113193E-02 2.16893689E-01
 9  8 0.00000000E+00 9.98411640E-03 2.73375361E-02 0.00000000E+00-2.23372020E-03
 9  9-5.10297574E-03 0.00000000E+00 7.27053846E-04-1.04219733E-03 4.97753880E-04
 9 10 7.04000617E-04 0.00000000E+00 0.00000000E+00-2.71289420E-04 1.22524876E-03
 9 11-2.71289420E-04 1.22524876E-03 9.65996263E-05-7.99466636E-04 9.65996263E-05
 9 12-7.99466636E-04
10  1 5.31656988E-06 1.35667921E-05 3.76232976E-06-2.74421973E-04 3.88717989E-04
10  2 1.64419269E-03-1.03939361E-03-6.66487770E-03 0.00000000E+00-2.05763103E-04
10  3-1.58320582E-03 0.00000000E+00-1.28481906E-04-2.54909753E-04 0.00000000E+00
10  4 4.70247086E-04 7.32543904E-04 0.00000000E+00-2.33425693E-04-3.95673677E-04
10  5-2.30595876E-04 1.71216716E-05 0.00000000E+00 0.00000000E+00 1.13852329E-03
10  6 3.30114610E-03-6.69995062E-03-5.08004667E-03 3.64301112E-03-3.48397444E-03
10  7 8.75229839E-01-3.19084944E-01 0.00000000E+00 2.16167545E-01-7.89205419E-02
10  8 0.00000000E+00 2.56617608E-02-9.40318973E-03 0.00000000E+00-5.00666518E-03
10  9 1.78844353E-03 0.00000000E+00 4.66974710E-04-5.80125065E-04-7.87701850E-04
10 10-6.08535391E-04 0.00000000E+00 0.00000000E+00 3.20199776E-05 1.24844398E-03
10 11 3.20199776E-05 1.24844398E-03-2.63851925E-05-1.75094720E-04-2.63851925E-05
10 12-1.75094720E-04
11  1-1.98510447E-02-5.98884563E-02 1.30865521E-01 2.13665402E-01-3.44091997E-01
11  2-2.72869937E-01-2.49177340E-02 3.47129774E-02 0.00000000E+00-6.27859206E-03
11  3 8.64029382E-03 0.00000000E+00 5.18569987E-02-7.44805727E-02 0.00000000E+00
11  4 2.71097820E-02-3.10097601E-02 0.00000000E+00-9.74607206E-03-2.93958207E-02
11  5-1.85094911E-02-3.16496941E-03 0.00000000E+00 0.00000000E+00-1.84536892E-02
11  6-5.56631893E-02 1.21505639E-01 1.98436643E-01-3.23077018E-01-2.28851343E-01
11  7 1.61847477E-02-2.91294865E-02 0.00000000E+00 4.41387126E-03-6.79330465E-03
11  8 0.00000000E+00-3.47207201E-02 6.20784858E-02 0.00000000E+00-1.64276026E-02
11  9 1.73997339E-02 0.00000000E+00 3.01669358E-04-3.69634653E-02-1.83381526E-02
11 10-7.30971784E-03 0.00000000E+00 0.00000000E+00-8.17522232E-02-3.06525620E-02
11 11-8.17522232E-02-3.06525620E-02-9.70086887E-02-3.18433835E-02-9.70086887E-02
11 12-3.18433835E-02
12  1-1.66616942E-02-5.02290402E-02 1.09222124E-01 1.88984880E-01-3.05564685E-01
12  2-2.92290829E-01-4.06930962E-02-2.57475324E-02 0.00000000E+00-9.31420462E-03
12  3-4.62797036E-03 0.00000000E+00 8.73447118E-02 5.47906495E-02 0.00000000E+00
12  4 3.45865213E-02 5.33738198E-05 0.00000000E+00-1.75536552E-02 2.63438080E-02
12  5-2.77570249E-02-3.21835303E-03 0.00000000E+00 0.00000000E+00 1.86048828E-02
12  6 5.61020418E-02-1.22150306E-01-2.08327608E-01 3.36528230E-01 3.10174354E-01
12  7-3.63186124E-02-4.25418252E-02 0.00000000E+00-8.28500369E-03-8.04812956E-03
12  8 0.00000000E+00 7.74073593E-02 8.78589074E-02 0.00000000E+00 2.79031955E-02
12  9 1.02986826E-02 0.00000000E+00 5.99119987E-03-1.41311712E-02 3.91829380E-02
12 10 1.65609609E-02 0.00000000E+00 0.00000000E+00 1.35824989E-01 7.81459019E-02
12 11 1.35824989E-01 7.81459019E-02-1.17702800E-01-6.34528721E-02-1.17702800E-01
12 12-6.34528721E-02
13  1 0.00000000E+00 0.00000000E+00 0.00000000E+00 0.00000000E+00 0.00000000E+00
13  2 0.00000000E+00 0.00000000E+00 0.00000000E+00 1.10217810E-01 0.00000000E+00
13  3 0.00000000E+00 2.05763893E-02 0.00000000E+00 0.00000000E+00-2.38077922E-01
13  4 0.00000000E+00 0.00000000E+00-1.28400153E-01 0.00000000E+00 0.00000000E+00
13  5 0.00000000E+00 0.00000000E+00 6.49410208E-02-7.41241384E-03 0.00000000E+00
13  6 0.00000000E+00 0.00000000E+00 0.00000000E+00 0.00000000E+00 0.00000000E+00
13  7 0.00000000E+00 0.00000000E+00 1.31055946E-01 0.00000000E+00 0.00000000E+00
13  8 2.43470017E-02 0.00000000E+00 0.00000000E+00-2.80305313E-01 0.00000000E+00
13  9 0.00000000E+00-1.56458790E-01 0.00000000E+00 0.00000000E+00 0.00000000E+00
13 10 0.00000000E+00-6.23925422E-02-2.52570968E-02 1.75727524E-01 1.68805757E-01
13 11-1.75727524E-01-1.68805757E-01 1.48691200E-01 1.49151727E-01-1.48691200E-01
13 12-1.49151727E-01
14  1 0.00000000E+00 0.00000000E+00 0.00000000E+00 0.00000000E+00 0.00000000E+00
14  2 0.00000000E+00 0.00000000E+00 0.00000000E+00 1.26005585E-01 0.00000000E+00
14  3 0.00000000E+00 2.32127346E-02 0.00000000E+00 0.00000000E+00-2.76708990E-01
14  4 0.00000000E+00 0.00000000E+00-1.44836133E-01 0.00000000E+00 0.00000000E+00
14  5 0.00000000E+00 0.00000000E+00 8.41508826E-02 1.08577990E-02 0.00000000E+00
14  6 0.00000000E+00 0.00000000E+00 0.00000000E+00 0.00000000E+00 0.00000000E+00
14  7 0.00000000E+00 0.00000000E+00-1.06249351E-01 0.00000000E+00 0.00000000E+00
14  8-1.95763939E-02 0.00000000E+00 0.00000000E+00 2.33325965E-01 0.00000000E+00
14  9 0.00000000E+00 1.09821688E-01 0.00000000E+00 0.00000000E+00 0.00000000E+00
14 10 0.00000000E+00 6.13327328E-02 4.73862121E-02-1.66393439E-01-1.89074583E-01
14 11 1.66393439E-01 1.89074583E-01 1.87151738E-01 2.14914467E-01-1.87151738E-01
14 12-2.14914467E-01
15  1 1.94666779E-03 5.89013355E-03-1.30700858E-02-2.12118849E-02 2.99658504E-02
15  2 9.30927330E-02-8.71704293E-02-1.22983107E-01 0.00000000E+00-1.53578507E-02
15  3-2.40504670E-02 0.00000000E+00 1.90212813E-01 2.77237789E-01 0.00000000E+00
15  4 1.14777115E-01 1.72346464E-01 0.00000000E+00-3.89736266E-02 9.63992212E-02
15  5-4.57565187E-02-7.17394266E-03 0.00000000E+00 0.00000000E+00 2.73671031E-03
15  6 8.27974795E-03-1.83317238E-02-3.01642245E-02 4.19882890E-02 1.18829857E-01
15  7 4.02538001E-02 1.41237525E-01 0.00000000E+00 6.93324211E-03 2.74187550E-02
15  8 0.00000000E+00-8.80978672E-02-3.17703654E-01 0.00000000E+00-4.05077192E-02
15  9-1.94285664E-01 0.00000000E+00-1.82908556E-02 7.95746358E-02-4.81549264E-02
15 10-3.40222586E-02 0.00000000E+00 0.00000000E+00-1.14380200E-01-1.44492874E-01
15 11-1.14380200E-01-1.44492874E-01-1.24072281E-01-1.59781359E-01-1.24072281E-01
15 12-1.59781359E-01
16  1 1.10672190E-02 3.34252457E-02-7.31513647E-02-1.39015095E-01 2.59750573E-01
16  2 2.57657421E-01-1.36579051E-01 6.05223041E-02 0.00000000E+00-2.06254790E-02
16  3 8.69255167E-03 0.00000000E+00 2.89935128E-01-1.26894074E-01 0.00000000E+00
16  4 3.11407151E-01-1.69472365E-01 0.00000000E+00-1.24472762E-02-1.66512722E-03
16  5-6.25892479E-03 2.33377374E-02 0.00000000E+00 0.00000000E+00-7.11007927E-03
16  6-2.14879844E-02 4.72020786E-02 8.72150942E-02-1.64640787E-01-1.38711468E-01
16  7-1.14154531E-01-1.80004560E-02 0.00000000E+00-1.71580562E-02-3.88343294E-03
16  8 0.00000000E+00 2.40126743E-01 4.15646331E-02 0.00000000E+00 2.61002475E-01
16  9-1.67561129E-02 0.00000000E+00 7.20657079E-03-1.56263675E-02 1.26297044E-02
16 10-1.33123438E-02 0.00000000E+00 0.00000000E+00 6.32552199E-02 6.63492663E-02
16 11 6.32552199E-02 6.63492663E-02-7.29936154E-02-6.92180512E-02-7.29936154E-02
16 12-6.92180512E-02
17  1-5.68335088E-03-1.71190003E-02 3.68592003E-02 7.90428234E-02-1.39162867E-01
17  2-2.36822184E-01 8.54050416E-02-9.06885298E-02 0.00000000E+00 1.13371945E-02
17  3-1.36419375E-02 0.00000000E+00-1.84186647E-01 1.96726488E-01 0.00000000E+00
17  4-2.45989567E-01 2.36373605E-01 0.00000000E+00 1.40889590E-02 1.41595562E-02
17  5 1.19456996E-02 2.02007821E-02 0.00000000E+00 0.00000000E+00-7.15508924E-03
17  6-2.15948770E-02 4.70104315E-02 9.53320046E-02-1.70718179E-01-2.75993555E-01
17  7-1.52720066E-01 7.62301214E-02 0.00000000E+00-2.05667898E-02 1.13007493E-02
17  8 0.00000000E+00 3.23022980E-01-1.62458044E-01 0.00000000E+00 4.57882229E-01
17  9-2.00587427E-01 0.00000000E+00 9.90676616E-03 1.71227162E-02 6.93272015E-03
17 10 7.85580557E-03 0.00000000E+00 0.00000000E+00 5.71566956E-02 7.84938448E-02
17 11 5.71566956E-02 7.84938448E-02 6.22628316E-02 8.10347675E-02 6.22628316E-02
17 12 8.10347675E-02
 $END

