! Bench 4
!
! This is a RHF/6-31G* run on silacyclobutane, with 80 AOs.
!
! This calculation comes from a study of cycloalkanes and silacycloalkanes 
! by J.A.Boatz, M.S.Gordon, and R.L.Hilderbrandt,  
! J.Am.Chem.Soc., 1988, 110, 352-358.
!
! The FINAL energy is -407.1472108431 after 10 iterations.
!
 $CONTRL SCFTYP=RHF  RUNTYP=ENERGY  UNITS=ANGS $END
 $SYSTEM TIMLIM=600 MEMORY=300000 $END
 $BASIS  GBASIS=N31 NGAUSS=6 NDFUNC=1 $END
 $GUESS  GUESS=HUCKEL $END
 $ELMOM  IEMOM=2 WHERE=ORIGIN $END
 $DATA
RHF/6-31G*//RHF/3-21G* Silacyclobutane
CS

SILICON    14.0    -0.081722       1.055710
CARBON      6.0    -0.081722      -0.395331       1.217568
CARBON      6.0     0.319935      -1.329102
HYDROGEN    1.0    -1.222554       1.998369
HYDROGEN    1.0     1.168317       1.848237
HYDROGEN    1.0     0.604981      -0.419640       2.052727
HYDROGEN    1.0    -1.077445      -0.641554       1.572232
HYDROGEN    1.0     1.388834      -1.500162
HYDROGEN    1.0    -0.184517      -2.285408
 $END
