! Bench 7
!
! This is a MCSCF/3-21G(d,p) run at the bent transition
! state for O + HBr --> OH + Br (on the 3-A'' surface).
! There are 49 AOs and 20 CSFs.
!
! THE FINAL MCSCF ENERGY IS -2635.2370718631 AFTER 13 ITERATIONS
!                                                                               
 $CONTRL SCFTYP=MCSCF MULT=3 RUNTYP=ENERGY UNITS=BOHR NZVAR=3 $END                                             
 $SYSTEM TIMLIM=3500 MEMORY=500000 $END                                         
 $GUESS  GUESS=MOREAD    NORB=49  $END                                          
 $DRT    GROUP=CS ISTSYM=2 FORS=.TRUE. NMCC=17 NDOC=4 NALP=2 NVAL=1 $END                 
 $MCSCF  CISTEP=GUGA SOSCF=.T. $END                                                        
 $ZMAT   IZMAT(1) = 1,2,1,    1,3,2,    2,3,2,1  $END                           
 $DATA                                                                          
O+HBR --> OH + BR ...AT THE MCSCF/3-21G(D,P) SADDLE POINT                       
CS                                                                              
                                                                                
OXYGEN       8.        0.0406871551       -4.1401827059                         
 N21 3                                                                          
 D    1                                                                         
    1   0.800            1.0                                                    
                                                                                
HYDROGEN     1.       -1.0194571785       -2.0410625013                         
 N21 3                                                                          
 P   1                                                                          
    1   1.100            1.0                                                    
                                                                                
BROMINE     35.        0.0047726199        0.8651844197                         
 N21 3                                                                          
 D   1                                                                          
    1   0.389            1.0                                                    
                                                                                
 $END                                                                           
! RHF ORBITALS
 $VEC
 1  1 7.17251172E-05 2.91140487E-04-1.80169559E-04-2.41824229E-05 0.00000000E+00
 1  2-1.24858629E-03 7.10535601E-04-6.21433192E-05 0.00000000E+00 7.53982992E-05
 1  3 2.71458965E-04 2.13816447E-04 2.39073095E-04 0.00000000E+00 0.00000000E+00
 1  4-7.48458465E-04 3.54427397E-03-6.43998199E-05-5.45131174E-04 0.00000000E+00
 1  5-9.82394747E-01-6.06320518E-02-1.39089406E-05-4.17923531E-05 0.00000000E+00
 1  6-1.32745954E-02 5.66243313E-05 1.63845531E-04 0.00000000E+00 1.66520660E-02
 1  7 1.67098477E-02 1.66441102E-02 2.49442188E-05 0.00000000E+00 0.00000000E+00
 1  8-1.31159143E-02-2.33017134E-04-6.75561822E-04 0.00000000E+00-2.95558347E-02
 1  9 6.69479112E-04 1.92540123E-03 0.00000000E+00 1.47739198E-02 1.42220279E-02
 1 10 1.48506804E-02-2.46180316E-04 0.00000000E+00 0.00000000E+00
 2  1 3.21826685E-06 1.72939293E-05-6.66531373E-05-9.10440310E-06 0.00000000E+00
 2  2-1.55721862E-04 2.79185755E-04 3.77732049E-05 0.00000000E+00-5.20951803E-05
 2  3 3.58318830E-05 2.48349538E-05 1.13612853E-04 0.00000000E+00 0.00000000E+00
 2  4-4.66612376E-04 1.29356890E-03-1.35210873E-04-4.41514485E-04 0.00000000E+00
 2  5-3.30645792E-01 1.01868582E+00-1.98708733E-04-3.12795485E-04 0.00000000E+00
 2  6 7.33796849E-02-7.44755180E-07 3.70952282E-05 0.00000000E+00-9.56332666E-03
 2  7-9.54426988E-03-9.56302705E-03 1.38900026E-05 0.00000000E+00 0.00000000E+00
 2  8-1.00916464E-02-7.40318007E-05-2.63770230E-04 0.00000000E+00-1.71263857E-02
 2  9 2.02693512E-04 6.46079274E-04 0.00000000E+00 9.48474661E-03 9.41330933E-03
 2 10 9.49354962E-03-2.17098452E-05 0.00000000E+00 0.00000000E+00
 3  1-1.35770861E-04-4.09984927E-04-1.97184558E-04-2.15560957E-04 0.00000000E+00
 3  2 1.03100303E-03 8.24263268E-04 3.81578949E-04 0.00000000E+00-7.96429933E-04
 3  3-2.52723739E-04-4.93151909E-04 4.26838491E-04 0.00000000E+00 0.00000000E+00
 3  4-2.24411371E-04 3.43910503E-03-4.75950061E-04-1.26031187E-03 0.00000000E+00
 3  5-3.24666152E-05 2.13827292E-04 4.03962430E-01 8.91661479E-01 0.00000000E+00
 3  6-1.21797764E-03 2.30890747E-02 5.10640613E-02 0.00000000E+00 1.15587538E-03
 3  7 1.20139947E-03 1.15636868E-03 2.34421473E-06 0.00000000E+00 0.00000000E+00
 3  8 7.37318238E-04-7.64102513E-03-1.72892965E-02 0.00000000E+00-6.56545176E-03
 3  9 3.94357404E-03 9.51360046E-03 0.00000000E+00 2.03318939E-03 1.47667951E-03
 3 10 2.10182474E-03-1.93016029E-04 0.00000000E+00 0.00000000E+00
 4  1 0.00000000E+00 0.00000000E+00 0.00000000E+00 0.00000000E+00 1.20028090E-04
 4  2 0.00000000E+00 0.00000000E+00 0.00000000E+00-3.23708930E-04 0.00000000E+00
 4  3 0.00000000E+00 0.00000000E+00 0.00000000E+00-1.11263820E-05-1.38302641E-04
 4  4 0.00000000E+00 0.00000000E+00 0.00000000E+00 0.00000000E+00-1.54151385E-04
 4  5 0.00000000E+00 0.00000000E+00 0.00000000E+00 0.00000000E+00 9.78992463E-01
 4  6 0.00000000E+00 0.00000000E+00 0.00000000E+00 5.57252502E-02 0.00000000E+00
 4  7 0.00000000E+00 0.00000000E+00 0.00000000E+00-1.16882481E-05-1.43895034E-05
 4  8 0.00000000E+00 0.00000000E+00 0.00000000E+00-1.78039594E-02 0.00000000E+00
 4  9 0.00000000E+00 0.00000000E+00 7.88308942E-03 0.00000000E+00 0.00000000E+00
 4 10 0.00000000E+00 0.00000000E+00-5.59277466E-06-2.76481212E-05
 5  1-4.03168148E-04-1.48019600E-03-4.26504008E-05-2.79266435E-04 0.00000000E+00
 5  2 4.75717459E-03 2.09335083E-05 1.08702977E-03 0.00000000E+00-1.33921438E-03
 5  3-9.34948024E-04-1.38328803E-03 2.55278403E-05 0.00000000E+00 0.00000000E+00
 5  4-4.44223418E-05-1.32790497E-03-1.93559908E-04 9.00200102E-05 0.00000000E+00
 5  5 2.71373591E-05-9.30478304E-05-8.91748262E-01 4.03978021E-01 0.00000000E+00
 5  6-2.49467711E-04-5.07689017E-02 2.30439962E-02 0.00000000E+00 1.65424537E-04
 5  7 1.38454222E-04 1.49560779E-04-7.28523202E-06 0.00000000E+00 0.00000000E+00
 5  8-8.46214129E-05 1.62987135E-02-7.54434106E-03 0.00000000E+00-4.36483339E-05
 5  9-7.45017625E-03 3.15098511E-03 0.00000000E+00 2.01281827E-04 2.44099496E-04
 5 10 1.64298826E-04 1.60587293E-04 0.00000000E+00 0.00000000E+00
 6  1-9.76133788E-01-7.42395809E-02 5.96664416E-04-7.83198440E-04 0.00000000E+00
 6  2-3.91711220E-02-1.48889427E-03 2.45155483E-03 0.00000000E+00 2.40838877E-02
 6  3 2.54395528E-02 2.45440046E-02-1.17793800E-03 0.00000000E+00 0.00000000E+00
 6  4-1.42712452E-03-3.09499019E-03-1.66893651E-03 2.76016921E-03 0.00000000E+00
 6  5-1.33790633E-05-4.38140148E-05 1.90949736E-05 4.74701802E-07 0.00000000E+00
 6  6-3.34173252E-04-6.21393571E-05-4.17426150E-06 0.00000000E+00 1.05828103E-05
 6  7-6.53504664E-05-6.52084489E-06 1.25891254E-05 0.00000000E+00 0.00000000E+00
 6  8-6.58405337E-04 1.95000725E-04 1.34072013E-04 0.00000000E+00 2.52334987E-03
 6  9-4.55975421E-04-1.25367648E-03 0.00000000E+00-5.83630266E-04 1.21937523E-04
 6 10-5.02979762E-04 2.95250754E-07 0.00000000E+00 0.00000000E+00
 7  1 3.40502148E-05 1.23374913E-04-8.96225477E-05-5.45742035E-05 0.00000000E+00
 7  2-6.36125871E-04 4.23149535E-04-7.65151973E-05 0.00000000E+00-3.35160787E-05
 7  3 1.07262447E-04 6.87092207E-05 1.73274071E-04 0.00000000E+00 0.00000000E+00
 7  4-1.63166412E-04 1.85743167E-03-7.39419599E-05-4.13072956E-04 0.00000000E+00
 7  5 1.31301679E-01-4.79454236E-01 4.89106537E-04 9.28606337E-04 0.00000000E+00
 7  6 1.12123750E+00-1.14475591E-03-2.15259805E-03 0.00000000E+00-2.00767739E-02
 7  7-1.92736382E-02-2.00805092E-02 6.17424731E-04 0.00000000E+00 0.00000000E+00
 7  8 3.58401738E-02-2.65838910E-04-7.05932504E-04 0.00000000E+00-8.67518085E-03
 7  9 3.86093182E-04 1.08951657E-03 0.00000000E+00 2.25497839E-04 5.62304058E-05
 7 10 2.53681900E-04-7.62835402E-05 0.00000000E+00 0.00000000E+00
 8  1-4.77970233E-05-1.11686996E-04-2.82579785E-05-3.82932791E-05 0.00000000E+00
 8  2 3.19874933E-04 6.52538319E-05 1.30873984E-04 0.00000000E+00-1.57235543E-04
 8  3-8.63664790E-05-1.95897149E-04-2.82812186E-05 0.00000000E+00 0.00000000E+00
 8  4 3.62650508E-04 5.63265717E-04 1.68390872E-04 5.15376619E-04 0.00000000E+00
 8  5 3.45157962E-04-1.21477161E-03-1.86274028E-01-3.95363175E-01 0.00000000E+00
 8  6 3.66341396E-03 4.52873925E-01 9.61236867E-01 0.00000000E+00 1.14798264E-04
 8  7-1.49110065E-03 6.01269995E-04-1.15177733E-03 0.00000000E+00 0.00000000E+00
 8  8 5.84470758E-05 1.08469484E-02 2.29083778E-02 0.00000000E+00-1.48542480E-03
 8  9-2.01879306E-04-1.83165210E-04 0.00000000E+00 5.19451997E-04-8.07852801E-05
 8 10 5.88270825E-04-2.34756488E-04 0.00000000E+00 0.00000000E+00
 9  1 0.00000000E+00 0.00000000E+00 0.00000000E+00 0.00000000E+00-7.32021201E-06
 9  2 0.00000000E+00 0.00000000E+00 0.00000000E+00 1.24422321E-05 0.00000000E+00
 9  3 0.00000000E+00 0.00000000E+00 0.00000000E+00-8.50414636E-06 1.62207019E-05
 9  4 0.00000000E+00 0.00000000E+00 0.00000000E+00 0.00000000E+00-1.40424293E-04
 9  5 0.00000000E+00 0.00000000E+00 0.00000000E+00 0.00000000E+00-4.37148209E-01
 9  6 0.00000000E+00 0.00000000E+00 0.00000000E+00 1.06298306E+00 0.00000000E+00
 9  7 0.00000000E+00 0.00000000E+00 0.00000000E+00-6.13231015E-04-1.20677772E-03
 9  8 0.00000000E+00 0.00000000E+00 0.00000000E+00 2.45835860E-02 0.00000000E+00
 9  9 0.00000000E+00 0.00000000E+00-6.95638121E-04 0.00000000E+00 0.00000000E+00
 9 10 0.00000000E+00 0.00000000E+00-1.66779160E-05-6.03607898E-05
10  1 5.63644641E-05 1.52416583E-04 7.08457381E-06 3.09641885E-05 0.00000000E+00
10  2-5.28872889E-04-9.93726492E-06-8.67197917E-05 0.00000000E+00 1.86308677E-04
10  3 1.80978039E-04 1.90876805E-04-9.84319563E-06 0.00000000E+00 0.00000000E+00
10  4-3.29317998E-05-2.94633987E-05-1.41432836E-04-7.33540571E-06 0.00000000E+00
10  5 9.99679259E-06-4.26206487E-05-3.95472934E-01 1.86327866E-01 0.00000000E+00
10  6 7.39518282E-05 9.61680955E-01-4.53107990E-01 0.00000000E+00-9.44165839E-04
10  7 9.24677033E-04 1.25966138E-05-8.10814942E-04 0.00000000E+00 0.00000000E+00
10  8-3.34318282E-05 2.20491905E-02-1.03279769E-02 0.00000000E+00 1.26739578E-04
10  9-5.76752705E-04 1.55116973E-04 0.00000000E+00-6.79296503E-05 8.95643733E-05
10 10-4.89514515E-05-3.30086524E-05 0.00000000E+00 0.00000000E+00
11  1-1.04620872E-03-3.68660135E-03 8.11314206E-04 1.27209714E-04 0.00000000E+00
11  2 1.65391951E-02-4.41356062E-03 1.95917897E-03 0.00000000E+00-2.14683667E-03
11  3-3.34122695E-03-2.14561145E-03-3.88536944E-04 0.00000000E+00 0.00000000E+00
11  4-3.78492984E-03-3.25093867E-02-3.03224928E-03-7.04031295E-03 0.00000000E+00
11  5-3.85237858E-04-1.59517453E-04-2.30479745E-04-5.25202168E-04 0.00000000E+00
11  6-8.00754434E-03 4.47538661E-04 1.04881973E-03 0.00000000E+00-1.37982926E-01
11  7 7.07786161E-01-5.69681359E-01 6.35688886E-01 0.00000000E+00 0.00000000E+00
11  8-1.02910143E-02 2.60765250E-03 5.99271244E-03 0.00000000E+00 3.97826734E-02
11  9-9.02168939E-03-2.33771052E-02 0.00000000E+00-1.92678620E-02 5.39276410E-02
11 10-5.19524695E-02 5.16367440E-02 0.00000000E+00 0.00000000E+00
12  1 0.00000000E+00 0.00000000E+00 0.00000000E+00 0.00000000E+00-2.01339629E-04
12  2 0.00000000E+00 0.00000000E+00 0.00000000E+00 2.02375228E-04 0.00000000E+00
12  3 0.00000000E+00 0.00000000E+00 0.00000000E+00 1.81889961E-04-1.59956316E-04
12  4 0.00000000E+00 0.00000000E+00 0.00000000E+00 0.00000000E+00 3.30331737E-03
12  5 0.00000000E+00 0.00000000E+00 0.00000000E+00 0.00000000E+00-6.03318466E-04
12  6 0.00000000E+00 0.00000000E+00 0.00000000E+00 1.53480171E-03 0.00000000E+00
12  7 0.00000000E+00 0.00000000E+00 0.00000000E+00 4.43361577E-01 8.79465110E-01
12  8 0.00000000E+00 0.00000000E+00 0.00000000E+00 8.95254785E-05 0.00000000E+00
12  9 0.00000000E+00 0.00000000E+00-7.13338650E-04 0.00000000E+00 0.00000000E+00
12 10 0.00000000E+00 0.00000000E+00 3.18255158E-02 6.34936044E-02
13  1-1.08932262E-03-3.32749897E-03-2.33078953E-04-8.53218425E-04 0.00000000E+00
13  2 1.05724668E-02 9.38417248E-04 2.68892011E-03 0.00000000E+00-3.68902651E-03
13  3-3.09211082E-03-3.75997230E-03 3.42826301E-04 0.00000000E+00 0.00000000E+00
13  4 8.25042665E-04 3.03736747E-03 3.28295409E-03 7.35049593E-04 0.00000000E+00
13  5 5.62900753E-05 1.02098992E-04-5.39574208E-04 2.61092484E-04 0.00000000E+00
13  6 1.19430482E-03 1.38918822E-03-6.06148336E-04 0.00000000E+00 6.83793061E-01
13  7-6.74751164E-01-8.78754474E-03 5.95458345E-01 0.00000000E+00 0.00000000E+00
13  8 2.08548246E-03-2.08985308E-04-1.31243642E-03 0.00000000E+00-7.21104799E-03
13  9 4.16524166E-04 4.51735993E-03 0.00000000E+00 5.10781805E-02-4.91389369E-02
13 10 1.65366133E-03 4.21411974E-02 0.00000000E+00 0.00000000E+00
14  1 0.00000000E+00 0.00000000E+00 0.00000000E+00 0.00000000E+00-1.68393560E-04
14  2 0.00000000E+00 0.00000000E+00 0.00000000E+00 3.09604113E-04 0.00000000E+00
14  3 0.00000000E+00 0.00000000E+00 0.00000000E+00 1.85645321E-05 5.55359377E-05
14  4 0.00000000E+00 0.00000000E+00 0.00000000E+00 0.00000000E+00 4.00231855E-04
14  5 0.00000000E+00 0.00000000E+00 0.00000000E+00 0.00000000E+00-3.84579557E-06
14  6 0.00000000E+00 0.00000000E+00 0.00000000E+00 1.70475606E-06-1.45008997E-11
14  7 0.00000000E+00 1.66502343E-11 0.00000000E+00-8.79652540E-01 4.43375257E-01
14  8 0.00000000E+00 0.00000000E+00 0.00000000E+00 5.36240447E-05 0.00000000E+00
14  9 0.00000000E+00 0.00000000E+00-1.84644754E-04 0.00000000E+00 0.00000000E+00
14 10 0.00000000E+00 0.00000000E+00-6.26196618E-02 3.17477698E-02
15  1 5.63919729E-04 1.83192762E-03-1.33353307E-05 3.35584682E-04 0.00000000E+00
15  2-6.54405142E-03 3.09333092E-04-1.55879780E-03 0.00000000E+00 1.65793662E-03
15  3 1.36778790E-03 1.70725412E-03 3.84061296E-05 0.00000000E+00 0.00000000E+00
15  4 3.54460208E-04 4.27972285E-03 1.09275863E-04 4.50279568E-04 0.00000000E+00
15  5 5.84127351E-05-7.64850371E-05 2.21655906E-05 4.71401992E-05 0.00000000E+00
15  6 1.08703716E-03-3.47185985E-05-1.01831909E-04 0.00000000E+00 6.95196924E-01
15  7 1.07701259E-01-8.03121838E-01-4.58695935E-01-1.82449035E-11 0.00000000E+00
15  8 7.65334528E-04-3.35359636E-04-4.17023260E-04 0.00000000E+00-3.87115564E-03
15  9 1.21762162E-03 2.12017098E-03 0.00000000E+00 5.03206669E-02 7.48623058E-03
15 10-5.61501395E-02-3.34639324E-02 0.00000000E+00 0.00000000E+00
16  1 2.39072084E-01-2.90436821E-01 1.63125927E-02-3.18111746E-02 0.00000000E+00
16  2-6.85744446E-01 2.58803754E-02-4.07154714E-02 0.00000000E+00-3.39066375E-02
16  3-4.36259063E-02-2.29100449E-02 9.55102193E-03 0.00000000E+00 0.00000000E+00
16  4-6.06054085E-02-9.32264971E-03-5.71573425E-04 1.61682136E-03 0.00000000E+00
16  5 1.87107469E-03-6.53301004E-03 5.26020099E-04 3.49080226E-03 0.00000000E+00
16  6 1.97400349E-02-1.59292315E-03-1.06730615E-02 0.00000000E+00-2.15866505E-03
16  7 4.78619463E-03-2.26962679E-03 1.40347001E-03 0.00000000E+00 0.00000000E+00
16  8-1.52113641E-02 1.93230071E-03 1.41104538E-02 0.00000000E+00-3.46276673E-02
16  9 2.27513119E-03 1.64897857E-02 0.00000000E+00 3.35564607E-03-9.07522540E-03
16 10 3.17779862E-03-2.13876930E-03 0.00000000E+00 0.00000000E+00
17  1-3.58334490E-02 3.84939835E-02 2.24805076E-02-9.38477952E-02 0.00000000E+00
17  2 1.35432718E-01 2.00475568E-02-8.55620037E-02 0.00000000E+00 2.50006402E-03
17  3-4.04884349E-03 2.95683541E-03 3.69242905E-03 0.00000000E+00 0.00000000E+00
17  4-9.56185490E-02-5.84581684E-02-5.33330499E-03-9.70804487E-03 0.00000000E+00
17  5 3.59341303E-02-1.35818472E-01 2.96271593E-03 1.01171055E-02 0.00000000E+00
17  6 3.61633993E-01-9.07494803E-03-3.11814505E-02 0.00000000E+00-4.31706368E-03
17  7 8.52208612E-03-5.86451850E-03 5.93094648E-03 0.00000000E+00 0.00000000E+00
17  8-4.09446969E-01 1.19541445E-02 4.40669016E-02 0.00000000E+00-5.44990026E-01
17  9 1.25811464E-02 3.88807055E-02 0.00000000E+00-1.77605625E-02-4.44896718E-02
17 10-1.44475050E-02-1.27254736E-02 0.00000000E+00 0.00000000E+00
18  1 3.76967484E-02-3.25323851E-02-2.01229111E-01 4.27788723E-01 0.00000000E+00
18  2-1.67377753E-01-2.06309354E-01 4.31122458E-01 0.00000000E+00 4.30741529E-03
18  3 1.96119131E-02-3.64851053E-03-1.63166581E-02 0.00000000E+00 0.00000000E+00
18  4 1.42305334E-01 1.30468109E-01 7.28333258E-03-1.24349724E-02 0.00000000E+00
18  5 1.28017944E-02-4.73283489E-02-5.24710248E-03-2.01849553E-02 0.00000000E+00
18  6 1.31875368E-01 1.62667495E-02 6.27452660E-02 0.00000000E+00 4.54416041E-03
18  7-1.04730188E-02 5.79575201E-03-5.18298805E-03 0.00000000E+00 0.00000000E+00
18  8-1.42476776E-01-2.37240716E-02-9.54085678E-02 0.00000000E+00-2.51441884E-01
18  9-1.56630210E-02-5.94164751E-02 0.00000000E+00-7.40792595E-03 1.79242655E-02
18 10-9.09077991E-03 9.13030040E-03 0.00000000E+00 0.00000000E+00
19  1-4.77894417E-03 1.19994064E-03 5.08164243E-01 2.37492070E-01 0.00000000E+00
19  2 3.56379317E-02 5.23437433E-01 2.53258537E-01 0.00000000E+00-1.26777697E-02
19  3 6.43738848E-03-7.79733348E-04 6.34373716E-03 0.00000000E+00 0.00000000E+00
19  4-4.33414364E-03-7.38835865E-02 5.96663407E-03 3.38777284E-03 0.00000000E+00
19  5 1.66519865E-03-9.04858794E-03 3.47416587E-03-5.22375440E-03 0.00000000E+00
19  6 1.10626626E-02-1.07330848E-02 1.60593624E-02 0.00000000E+00 1.42993424E-03
19  7-4.58593796E-03 1.22566823E-03 2.40100656E-03 0.00000000E+00 0.00000000E+00
19  8-4.37223674E-02 1.41336028E-02-1.81846574E-02 0.00000000E+00 3.68065904E-02
19  9 1.69352190E-02-6.31766920E-02 0.00000000E+00-1.76033868E-02 5.97437867E-03
19 10-1.79594917E-02-3.87323161E-03 0.00000000E+00 0.00000000E+00
20  1-2.80510840E-02 2.48206967E-02-8.15181184E-02 2.22933289E-01 0.00000000E+00
20  2 1.59182548E-01-1.04545227E-01 2.68171859E-01 0.00000000E+00 2.05617735E-03
20  3-2.04462691E-03 3.95689461E-05-1.97659704E-03 0.00000000E+00 0.00000000E+00
20  4-1.34859095E-01-2.09858548E-01-1.37402429E-03-2.65360228E-02 0.00000000E+00
20  5-4.86516171E-03 1.64320370E-02 4.67387278E-02 8.51485536E-02 0.00000000E+00
20  6-5.32422046E-02-1.45717424E-01-2.65787092E-01 0.00000000E+00-5.19166733E-03
20  7 1.31300812E-02-9.93304450E-03 1.46239619E-02 0.00000000E+00 0.00000000E+00
20  8 4.63185565E-02 2.15232403E-01 4.01563569E-01 0.00000000E+00 1.63100415E-01
20  9 2.42881458E-01 3.96227868E-01 0.00000000E+00-4.56020040E-03-4.80614152E-02
20 10 8.85635493E-03-4.06937571E-02 0.00000000E+00 0.00000000E+00
21  1 0.00000000E+00 0.00000000E+00 0.00000000E+00 0.00000000E+00-6.95785301E-02
21  2 0.00000000E+00 0.00000000E+00 0.00000000E+00-1.05759935E-01 0.00000000E+00
21  3 0.00000000E+00 0.00000000E+00 0.00000000E+00 1.41328328E-03-6.82931621E-03
21  4 0.00000000E+00 0.00000000E+00 0.00000000E+00 0.00000000E+00-1.38858554E-02
21  5 0.00000000E+00 0.00000000E+00 0.00000000E+00 0.00000000E+00-1.07288717E-01
21  6 0.00000000E+00 0.00000000E+00 0.00000000E+00 3.34825577E-01 0.00000000E+00
21  7 0.00000000E+00 0.00000000E+00 0.00000000E+00-1.45377655E-03-7.11049709E-03
21  8 0.00000000E+00 0.00000000E+00 0.00000000E+00-4.91779833E-01 0.00000000E+00
21  9 0.00000000E+00 0.00000000E+00-6.22935593E-01 0.00000000E+00 0.00000000E+00
21 10 0.00000000E+00 0.00000000E+00 5.40618894E-03 2.62924755E-02
22  1 6.63883275E-03-1.86465812E-02-2.96507276E-02-6.82044244E-02 0.00000000E+00
22  2-1.00249800E-02-2.93930570E-02-6.85479415E-02 0.00000000E+00-7.86054471E-03
22  3-5.13310111E-03-7.70815693E-03 3.62817536E-03 0.00000000E+00 0.00000000E+00
22  4 8.34293155E-03-2.28078151E-02 8.26979216E-03 2.27757742E-03 0.00000000E+00
22  5 1.42870474E-04-6.15436684E-04 9.67768255E-02-5.27013158E-02 0.00000000E+00
22  6 7.26226360E-04-3.02272818E-01 1.64709290E-01 0.00000000E+00 2.71020685E-03
22  7-2.66942662E-03 7.41940001E-04 2.82856262E-03 0.00000000E+00 0.00000000E+00
22  8-2.90688878E-03 4.49051256E-01-2.46653173E-01 0.00000000E+00 2.15102378E-03
22  9 5.46061529E-01-2.99346301E-01 0.00000000E+00-7.78376198E-03 1.47368064E-02
22 10-6.30513661E-04-9.84094382E-03 0.00000000E+00 0.00000000E+00
23  1 0.00000000E+00 0.00000000E+00 0.00000000E+00 0.00000000E+00 4.64821489E-01
23  2 0.00000000E+00 0.00000000E+00 0.00000000E+00 6.67249798E-01 0.00000000E+00
23  3 0.00000000E+00 0.00000000E+00 0.00000000E+00-7.72338185E-03 1.05412652E-02
23  4 0.00000000E+00 0.00000000E+00 0.00000000E+00 0.00000000E+00 1.21975781E-02
23  5 0.00000000E+00 0.00000000E+00 0.00000000E+00 0.00000000E+00-2.16142039E-02
23  6 0.00000000E+00 0.00000000E+00 0.00000000E+00 6.79154533E-02 0.00000000E+00
23  7 0.00000000E+00 0.00000000E+00 0.00000000E+00-8.07083996E-05 6.26372365E-03
23  8 0.00000000E+00 0.00000000E+00 0.00000000E+00-1.10025694E-01 0.00000000E+00
23  9 0.00000000E+00 0.00000000E+00-9.65351115E-02 0.00000000E+00 0.00000000E+00
23 10 0.00000000E+00 0.00000000E+00 3.61584365E-04-2.14390307E-02
24  1 6.57293672E-02-3.74563565E-02 1.38446227E-01-1.46548310E-01 0.00000000E+00
24  2-5.54915931E-01 2.23658448E-01-3.37289466E-01 0.00000000E+00 1.24584919E-02
24  3 8.56198704E-03 3.83051054E-03-1.62914176E-02 0.00000000E+00 0.00000000E+00
24  4 2.31153770E-01 1.45923546E+00-8.13917141E-03-2.67256585E-03 0.00000000E+00
24  5 9.80508969E-03-3.39183679E-02 2.61910862E-02 4.28553576E-02 0.00000000E+00
24  6 1.17177873E-01-8.23147520E-02-1.33416497E-01 0.00000000E+00 8.36411285E-03
24  7-4.43787943E-02 2.34402134E-02-4.36496741E-02 0.00000000E+00 0.00000000E+00
24  8-9.78118528E-02 1.20876112E-01 1.53322694E-01 0.00000000E+00-4.98738675E-01
24  9 3.01447759E-01 7.90012029E-01 0.00000000E+00-2.58849473E-02 3.01116114E-02
24 10-6.16017867E-02 9.55567984E-02 0.00000000E+00 0.00000000E+00
25  1 3.72583837E-03-2.13318033E-02-3.48032077E-02 7.06819715E-03 0.00000000E+00
25  2-9.99156581E-03-8.27593362E-03-4.81429657E-02 0.00000000E+00-5.23091043E-03
25  3-3.85081404E-02 3.86162811E-03 2.24233634E-02 0.00000000E+00 0.00000000E+00
25  4-2.13490119E-01-1.60648552E-02-8.57003761E-03-2.81887922E-02 0.00000000E+00
25  5-4.61280263E-03-1.61294891E-01-2.65866465E-03-9.69760951E-03 0.00000000E+00
25  6-4.03978346E-01 8.16868353E-03 3.01675478E-02 0.00000000E+00-8.04145934E-02
25  7 3.32736878E-02-9.51998996E-02 4.39614191E-02 0.00000000E+00 0.00000000E+00
25  8-1.50413492E+00-6.39036261E-03-3.41139227E-02 0.00000000E+00 3.32542641E+00
25  9-3.72696066E-02-1.02507700E-01 0.00000000E+00-6.40444386E-01-1.07519653E+00
25 10-5.83784633E-01-1.66838465E-01 0.00000000E+00 0.00000000E+00
26  1-1.52923311E-02-6.07788829E-02-7.31212780E-02-1.34895172E-01 0.00000000E+00
26  2 3.09673890E-01-3.40858890E-02 1.41249052E-01 0.00000000E+00-7.36139874E-02
26  3 5.06632013E-02-6.98893809E-02 8.15781467E-03 0.00000000E+00 0.00000000E+00
26  4 2.60656607E-01-7.24912642E-01 6.61985691E-02 4.04752422E-02 0.00000000E+00
26  5-3.48746131E-04-5.64043061E-02-2.75469581E-02-2.69811466E-02 0.00000000E+00
26  6-1.32239161E-01 9.12400439E-02 9.05439441E-02 0.00000000E+00 1.14406846E-01
26  7-1.90742073E-01 5.03613373E-02 1.04256365E-01 0.00000000E+00 0.00000000E+00
26  8-5.13294707E-01-2.52958765E-01-2.74125886E-01 0.00000000E+00 1.15971057E+00
26  9 1.17257506E-01 6.44279085E-02 0.00000000E+00-6.96704564E-01 5.80854172E-01
26 10-4.45777832E-01-3.96179265E-01 0.00000000E+00 0.00000000E+00
27  1 0.00000000E+00 0.00000000E+00 0.00000000E+00 0.00000000E+00 7.18360209E-02
27  2 0.00000000E+00 0.00000000E+00 0.00000000E+00-6.79987369E-04 0.00000000E+00
27  3 0.00000000E+00 0.00000000E+00 0.00000000E+00 5.18685866E-03-3.50955082E-02
27  4 0.00000000E+00 0.00000000E+00 0.00000000E+00 0.00000000E+00-8.46467662E-02
27  5 0.00000000E+00 0.00000000E+00 0.00000000E+00 0.00000000E+00 1.29967261E-02
27  6 0.00000000E+00 0.00000000E+00 0.00000000E+00-4.26030739E-02 0.00000000E+00
27  7 0.00000000E+00 0.00000000E+00 0.00000000E+00-7.56750468E-02-2.33735877E-01
27  8 0.00000000E+00 0.00000000E+00 0.00000000E+00 1.09267943E-01 0.00000000E+00
27  9 0.00000000E+00 0.00000000E+00-5.95689541E-02 0.00000000E+00 0.00000000E+00
27 10 0.00000000E+00 0.00000000E+00 3.05595036E-01 9.43505422E-01
28  1 5.42331683E-03-2.52256460E-02 2.46328232E-02-1.70985528E-03 0.00000000E+00
28  2-3.77613228E-02 1.50720704E-02-4.87203988E-02 0.00000000E+00-1.02780148E-02
28  3-2.60682627E-02-4.33197781E-03-1.17627723E-03 0.00000000E+00 0.00000000E+00
28  4-6.59646155E-02 2.31340121E-01 7.25565650E-03-2.48279534E-02 0.00000000E+00
28  5 4.86332556E-04 1.53212097E-02 1.38497253E-02 1.95224926E-02 0.00000000E+00
28  6 4.17946860E-02-4.61676398E-02-6.50568017E-02 0.00000000E+00 2.06956733E-01
28  7 1.88823611E-02-2.16033732E-01-6.01012970E-03 0.00000000E+00 0.00000000E+00
28  8 1.46703752E-01 1.35082282E-01 1.88931296E-01 0.00000000E+00-3.57174606E-01
28  9-9.28572938E-02-9.66840459E-02 0.00000000E+00-7.61652925E-01-1.54491212E-02
28 10 9.55306013E-01 1.64711040E-02 0.00000000E+00 0.00000000E+00
29  1 0.00000000E+00 0.00000000E+00 0.00000000E+00 0.00000000E+00 1.97238812E-02
29  2 0.00000000E+00 0.00000000E+00 0.00000000E+00-3.50027946E-03 0.00000000E+00
29  3 0.00000000E+00 0.00000000E+00 0.00000000E+00-3.26170893E-03-9.10978917E-03
29  4 0.00000000E+00 0.00000000E+00 0.00000000E+00 0.00000000E+00 2.97278280E-03
29  5 0.00000000E+00 0.00000000E+00 0.00000000E+00 0.00000000E+00 5.74993636E-04
29  6 0.00000000E+00 0.00000000E+00 0.00000000E+00-1.87798278E-03 0.00000000E+00
29  7 0.00000000E+00 0.00000000E+00 0.00000000E+00 2.37974887E-01-7.67603753E-02
29  8 0.00000000E+00 0.00000000E+00 0.00000000E+00 4.67159294E-03 0.00000000E+00
29  9 0.00000000E+00 0.00000000E+00-2.10037444E-03 0.00000000E+00 0.00000000E+00
29 10 0.00000000E+00 0.00000000E+00-9.64701654E-01 3.11066043E-01
30  1-1.46911683E-02 1.08071406E-01-3.13862252E-02 4.37445796E-02 0.00000000E+00
30  2 5.35860986E-02-6.40593693E-02 1.23333013E-01 0.00000000E+00 4.46486413E-02
30  3 7.74923312E-02 4.73722816E-02-1.43157532E-02 0.00000000E+00 0.00000000E+00
30  4 1.90630471E-01-6.67636249E-01 5.14614925E-03 6.80277464E-02 0.00000000E+00
30  5-1.49362288E-03-4.28397995E-02-4.89354784E-02-6.39171442E-02 0.00000000E+00
30  6-1.18119258E-01 1.63096112E-01 2.13030128E-01 0.00000000E+00 1.95538612E-02
30  7-1.66867295E-02-3.22390578E-02-1.86343602E-01 0.00000000E+00 0.00000000E+00
30  8-4.13052060E-01-4.77222837E-01-6.20407743E-01 0.00000000E+00 1.01487925E+00
30  9 3.42581133E-01 3.45319503E-01 0.00000000E+00-3.00739751E-01-1.07431718E-01
30 10-9.74952135E-02 7.78210350E-01 0.00000000E+00 0.00000000E+00
31  1 0.00000000E+00 0.00000000E+00 0.00000000E+00 0.00000000E+00-6.63869558E-02
31  2 0.00000000E+00 0.00000000E+00 0.00000000E+00 2.08456986E-03 0.00000000E+00
31  3 0.00000000E+00 0.00000000E+00 0.00000000E+00-1.78774332E-03 2.98049746E-02
31  4 0.00000000E+00 0.00000000E+00 0.00000000E+00 0.00000000E+00 1.16439520E-02
31  5 0.00000000E+00 0.00000000E+00 0.00000000E+00 0.00000000E+00-1.48696015E-01
31  6 0.00000000E+00 0.00000000E+00 0.00000000E+00 4.95813298E-01 0.00000000E+00
31  7 0.00000000E+00 0.00000000E+00 0.00000000E+00-5.12009573E-03-1.91398747E-02
31  8 0.00000000E+00 0.00000000E+00 0.00000000E+00-1.46170077E+00 0.00000000E+00
31  9 0.00000000E+00 0.00000000E+00 1.26243780E+00 0.00000000E+00 0.00000000E+00
31 10 0.00000000E+00 0.00000000E+00 2.07062455E-02 7.78943843E-02
32  1 6.45575939E-03-9.22826217E-02-4.59940454E-02-8.91219752E-02 0.00000000E+00
32  2 9.48921614E-02 1.10879966E-02-2.04371741E-02 0.00000000E+00-5.01365915E-02
32  3-1.43723716E-02-5.30620487E-02 1.45357639E-02 0.00000000E+00 0.00000000E+00
32  4 6.03336154E-02-9.32905420E-02-1.20486296E-02-1.50150161E-02 0.00000000E+00
32  5 5.40226562E-04-4.02742897E-03-1.18403745E-01 8.82157787E-02 0.00000000E+00
32  6-5.63230703E-03 3.95015666E-01-2.94289644E-01 0.00000000E+00-6.16752607E-03
32  7 1.91145450E-02-4.07224840E-03 1.27606042E-03 0.00000000E+00 0.00000000E+00
32  8-2.85706297E-02-1.16767433E+00 8.72276928E-01 0.00000000E+00 3.18899193E-02
32  9 1.00545605E+00-7.88672210E-01 0.00000000E+00 4.56243930E-02-4.87941962E-02
32 10 3.64544207E-02-2.27707232E-03 0.00000000E+00 0.00000000E+00
33  1-8.69172032E-03 7.04419248E-02-8.61295345E-02-1.63241148E-01 0.00000000E+00
33  2 2.54692317E-01-7.99143701E-02 2.19804759E-01 0.00000000E+00-1.07717131E-02
33  3 1.98933403E-01-1.64268901E-02-5.04346234E-02 0.00000000E+00 0.00000000E+00
33  4 6.17166851E-01-1.86060081E+00-9.91049397E-03-1.30257243E-02 0.00000000E+00
33  5-1.25738004E-03-7.74761603E-02 6.64022018E-02 8.48010874E-02 0.00000000E+00
33  6-2.25102787E-01-2.22161747E-01-2.83625768E-01 0.00000000E+00 1.66316070E-03
33  7-2.09149662E-02 2.41727744E-02-7.01020659E-02 0.00000000E+00 0.00000000E+00
33  8-7.37414564E-01 6.82171104E-01 8.83534530E-01 0.00000000E+00 1.77562786E+00
33  9-8.25407437E-01-1.36538996E+00 0.00000000E+00-2.24037698E-01 1.10663624E-02
33 10-3.37203132E-01 3.55935221E-01 0.00000000E+00 0.00000000E+00
34  1-1.98071318E-02-5.74005150E-02-1.80824432E-01 8.25455490E-02 0.00000000E+00
34  2 1.18437217E-01 7.73478538E-02-2.68342748E-02 0.00000000E+00-6.65105894E-02
34  3-1.63615840E-01 4.35814510E-02 1.95436342E-01 0.00000000E+00 0.00000000E+00
34  4-8.84992098E-01 2.97824135E-01 3.25236589E-02-3.88995678E-05 0.00000000E+00
34  5-5.03510135E-03-1.62649506E-02 1.86614532E-02 4.00526272E-02 0.00000000E+00
34  6-1.18921636E-01-6.36059293E-02-1.37232209E-01 0.00000000E+00 4.30581454E-02
34  7-1.46760679E-01 7.03793764E-02-9.25455718E-02 0.00000000E+00 0.00000000E+00
34  8-2.33465166E-01 2.22880115E-01 4.99042431E-01 0.00000000E+00 6.92195184E-01
34  9-2.50643648E-01-5.82508015E-01 0.00000000E+00-4.18470351E-01 3.83334544E-01
34 10-5.34191515E-01 3.91077779E-01 0.00000000E+00 0.00000000E+00
35  1 0.00000000E+00 0.00000000E+00 0.00000000E+00 0.00000000E+00 9.86191179E-01