! EXAM34.
!
! 3-A-2 H3CN   Frozen core ZAPT2/6-31G*//UHF/6-31G*
!
! ZAPT2 high spin open shell PT2 geometry optimization using numerical gradients.
!
! Direct SCF and integral transformation are requested.
!
! At the initial geometry:
!
! The FINAL ROHF energy = -93.9955428414 after 10 iters.
!
! E1 = -0.1527546017   CLOSED SHELL-LIKE TERM
! E2 = -0.0139052216   SINGLY UNOCCUPIED
! E3 = -0.0000894180   2 SINGLY OCCUPIED
! E4 = -0.0142211935   SINGLY UNOCCUPIED/OCCUPIED
! E5 = -0.0049264113   "FOCK MATRIX CONTRIBUTION"
! E6 = -0.0420868444   SINGLY OCCUPIED
! E7 = -0.0056324998   2 SINGLY UNOCCUPIED
! -----------------------
! E(ZAPT) = -0.2336161903
!
! E(PT2)  =-94.2291590316
!
! RMS GRADIENT = 0.0031488
!
! FULLY SUBSTITUTED Z-MATRIX IS:
! N   
! C        1   1.4329216
! H        2   1.0876477    1   110.2192800
! H        2   1.0876477    1   110.2192800    3   120.0000000    0
! H        2   1.0876477    1   110.2192800    3  -120.0000000    0
!
!------------------------------------------------------------------------------
!
! After 5 steps at the optimized geometry:
!
! The FINAL ROHF energy = -93.9953392339 after 4 iters.   
!
! E1 = -0.1529989790   CLOSED SHELL-LIKE TERM
! E2 = -0.0139476627   SINGLY UNOCCUPIED
! E3 = -0.0000911055   2 SINGLY OCCUPIED
! E4 = -0.0142337697   SINGLY UNOCCUPIED/OCCUPIED
! E5 = -0.0049368817   "FOCK MATRIX CONTRIBUTION"
! E6 = -0.0421410591   SINGLY OCCUPIED
! E7 = -0.0056322790   2 SINGLY UNOCCUPIED
! -----------------------
! E(ZAPT) = -0.2339817368
!
! E(PT2)  =-94.2293209707
!
! RMS GRADIENT = 0.0000077
!
! FULLY SUBSTITUTED Z-MATRIX IS
! N   
! C        1   1.4320273
! H        2   1.0968534    1   110.1785414
! H        2   1.0968534    1   110.1785414    3   120.0000000    0
! H        2   1.0968534    1   110.1785414    3  -120.0000000    0
!
 $CONTRL SCFTYP=ROHF MULT=3 RUNTYP=OPTIMIZE MPLEVL=2 COORD=ZMT NUMDER=.T. $END
 $SYSTEM TIMLIM=30 MEMORY=300000 $END
 $BASIS  GBASIS=N31 NGAUSS=6 NDFUNC=1 NPFUNC=0 $END
 $GUESS  GUESS=HUCKEL $END
 $SCF DIRSCF=.T. $END
 $MP2 OSPT=ZAPT $END
 $DATA
Methylnitrene...UHF/6-31G* structure
Cnv 3

N
C  1  rCN
H  2  rCH  1  aHCN
H  2  rCH  1  aHCN  3  120.0
H  2  rCH  1  aHCN  3 -120.0

rCN=1.4329216
rCH=1.0876477
aHCN=110.21928
 $END
