! EXAM53.
!
! Si3(CH3)4 using HWDZ ECP at arbitrary geometry near S0/S1 crossing
!
! Two-state RI-XMCQDPT2 energy computation using resolvent fitting 
! with default grid parameters. def2-SVPD/C basis is used as the auxiliary 
! basis set.
!
! Zero-order Hamiltonian is defined by semi-canonical orbitals and orbital 
! energies from SA(2)-CASSCF(8,10) calculations using GUGA CI code.
!
! The model space is composed by 2 lowest CASCI/CASSCF vectors.
!
! As the overall number of AOs is small, the speed up due to use of RI 
! is minor, but would be huge for really large systems.
!
! RI-XMCQDPT2 energies are:
!
! -----------------------------------------------------------------------
! *** XMC-QDPT2 ENERGIES ***
! -----------------------------------------------------------------------
!   STATE                       1ST ORDER                       2ND ORDER
!     1     E(MCSCF)=   -169.633191995718     E(MP2)=   -170.070241621924
!     2     E(MCSCF)=   -169.629887359933     E(MP2)=   -170.064007298494
! -----------------------------------------------------------------------
!
! while standard XMCQDPT2 energies (i.e. without RI approximation) are:
!
! -----------------------------------------------------------------------
! *** XMC-QDPT2 ENERGIES ***
! -----------------------------------------------------------------------
!   STATE                       1ST ORDER                       2ND ORDER
!     1     E(MCSCF)=   -169.633191991616     E(MP2)=   -170.070256478813
!     2     E(MCSCF)=   -169.629887354110     E(MP2)=   -170.064021746615
! -----------------------------------------------------------------------
!
 $CONTRL runtyp=energy ecp=read scftyp=mcscf mplevl=2 inttyp=hondo $END
 $SYSTEM TIMLIM=10 MWORDS=12 $END
! As QDPT code in Firefly is multithreaded, 
! the line below is required to force use of only single thread in computations
! Do not use these settings in production runs!
 $smp httnp=1 np=1 mklnp=1 $end
 $guess guess=moread norb=84 $end
 $trans dirtrf=.t. mptran=2 mode=2 cuttrf=1.0d-13 $end
 $gugem pack2=.t. cutoff=1d-20 $end
 $gugdia nstate=2 itermx=100 cvgtol=1d-7 $end
 $gugdm2 wstate(1)=1,1 cutoff=1d-12 $end 
 $drt group=C1 fors=.true. nmcc=20 ndoc=4 nval=6 $end
 $mcscf cistep=guga acurcy=1.0d-6 soscf=.t. $end
 $xmcqdpt 
   kstate(1)=1,1 edshft=0.02 thrgen=1.0d-20 genzro=1.0d-20 
   alttrf(1)=1,1,1,1 RI=.T.
 $end
 $mcqfit ifmask=0x0f $end
 $RIMP2 AUXBAS=def2-SVPD/C $END
 $AUXBAS
 H    def2-SVPD/C
   S   2
      9.33521609      6.46093790E-01
      1.86110704      1.37005241E+00
   S   1
      0.59512466      1.00000000E+00
   S   1
      0.26448099      1.00000000E+00
   P   2
      2.45249821      1.32849560E-01
      1.35403830      1.45276215E+00
   P   1
      0.59522394      1.00000000E+00
   D   2
      1.58163766      1.49367397E+00
      0.62743960     -1.07069000E-02
   S   1
      0.09999490      1.00000000E+00
   P   1
      0.25372600      1.00000000E+00
   D   1
      0.29999800      1.00000000E+00

 C    def2-SVPD/C
   S   3
    281.47693316      4.89117480E-01
     59.86260691      1.52506644E+00
     23.28284492      5.32780710E-01
   S   1
      9.43365439      1.00000000E+00
   S   1
      3.31157947      1.00000000E+00
   S   1
      1.07438579      1.00000000E+00
   S   1
      0.40591700      1.00000000E+00
   S   1
      0.20682782      1.00000000E+00
   P   2
     24.79432276      1.27505829E+00
      6.37908678      1.30659648E+00
   P   1
      2.73619827      1.00000000E+00
   P   1
      1.13180785      1.00000000E+00
   P   1
      0.49171280      1.00000000E+00
   P   1
      0.23760591      1.00000000E+00
   D   2
      9.06768796      4.70111190E-01
      3.41167689      1.34112442E+00
   D   1
      1.41501615      1.00000000E+00
   D   1
      0.58793486      1.00000000E+00
   D   1
      0.25753087      1.00000000E+00
   F   3
      2.38701735      7.90936130E-01
      1.16067992      1.39179984E+00
      0.55289817      1.05324690E-01
   S   1
      0.11335700      1.00000000E+00
   P   1
      0.16011600      1.00000000E+00
   D   1
      0.10187900      1.00000000E+00
   F   1
      0.30185300      1.00000000E+00

 Si   def2-SVPD/C
   S   3
    252.95316000      1.51090391E+00
     93.61980100     -1.19969110E-01
     34.90955700     -5.00475790E-01
   S   1
     11.18095300      1.00000000E+00
   S   1
      6.52098190      1.00000000E+00
   S   1
      3.38219430      1.00000000E+00
   S   1
      1.32509420      1.00000000E+00
   S   1
      0.51925936      1.00000000E+00
   S   1
      0.24523251      1.00000000E+00
   S   1
      0.12935530      1.00000000E+00
   P   3
     81.94488700     -6.45429290E-01
      9.83495350      1.54270173E+00
      4.83763590      3.39313770E-01
   P   1
      1.77864770     -9.93111500E-01
   P   1
      0.69339970      1.00000000E+00
   P   1
      0.40788218      1.00000000E+00
   P   1
      0.15632603      1.51139817E+00
   D   3
     47.16636000      7.87202000E-01
     15.00007800      1.80566812E+00
      3.96467760      7.07265470E-01
   D   1
      2.33216330     -3.06843350E-01
   D   1
      0.65273451      1.00000000E+00
   D   1
      0.36848652      1.00000000E+00
   D   1
      0.15916560      1.00000000E+00
   F   1
      2.58191110      8.37913300E-02
   F   2
      0.61244748      1.91327985E+00
      0.32303395      3.03221730E-01
   S   1
      0.06382930      1.00000000E+00
   P   1
      0.08399980      1.00000000E+00
   D   1
      0.07053890      1.00000000E+00
   F   1
      0.17312400      1.00000000E+00

 $END
 $DATA
Si3(CH3)4 using HWDZ ECP at arbitrary geometry
 C1
 SI         14.0  -0.1882958564   0.5454345205  -0.8238116167
 S   2
  1        1.222000000        -0.5707339000
  2       0.2595000000          1.282382600
 S   1
  1       0.9310000000E-01      1.000000000
 P   2
  1        2.580000000        -0.7772500000E-01
  2       0.2984000000          1.019787000
 P   1
  1       0.8850000000E-01      1.000000000

 SI         14.0  -2.3991895208   0.5048273110  -0.1689985285
 S   2
  1        1.222000000        -0.5707339000
  2       0.2595000000          1.282382600
 S   1
  1       0.9310000000E-01      1.000000000
 P   2
  1        2.580000000        -0.7772500000E-01
  2       0.2984000000          1.019787000
 P   1
  1       0.8850000000E-01      1.000000000

 SI         14.0   1.4584708557   1.6762858793   0.5435191844
 S   2
  1        1.222000000        -0.5707339000
  2       0.2595000000          1.282382600
 S   1
  1       0.9310000000E-01      1.000000000
 P   2
  1        2.580000000        -0.7772500000E-01
  2       0.2984000000          1.019787000
 P   1
  1       0.8850000000E-01      1.000000000

 C           6.0  -3.7078662029   1.4933945525   0.7906903894
 S   7
  1        4233.000000         0.1220000000E-02
  2        634.9000000         0.9342000000E-02
  3        146.1000000         0.4545200000E-01
  4        42.50000000         0.1546570000
  5        14.19000000         0.3588660000
  6        5.148000000         0.4386320000
  7        1.967000000         0.1459180000
 S   2
  1        5.148000000        -0.1683670000
  2       0.4962000000          1.060091000
 S   1
  1       0.1533000000          1.000000000
 P   4
  1        18.16000000         0.1853900000E-01
  2        3.986000000         0.1154360000
  3        1.143000000         0.3861880000
  4       0.3594000000         0.6401140000
 P   1
  1       0.1146000000          1.000000000

 C           6.0  -3.1963774017  -1.1849965494  -0.5420854656
 S   7
  1        4233.000000         0.1220000000E-02
  2        634.9000000         0.9342000000E-02
  3        146.1000000         0.4545200000E-01
  4        42.50000000         0.1546570000
  5        14.19000000         0.3588660000
  6        5.148000000         0.4386320000
  7        1.967000000         0.1459180000
 S   2
  1        5.148000000        -0.1683670000
  2       0.4962000000          1.060091000
 S   1
  1       0.1533000000          1.000000000
 P   4
  1        18.16000000         0.1853900000E-01
  2        3.986000000         0.1154360000
  3        1.143000000         0.3861880000
  4       0.3594000000         0.6401140000
 P   1
  1       0.1146000000          1.000000000

 C           6.0   0.9210458445   3.4702770308   1.1228621233
 S   7
  1        4233.000000         0.1220000000E-02
  2        634.9000000         0.9342000000E-02
  3        146.1000000         0.4545200000E-01
  4        42.50000000         0.1546570000
  5        14.19000000         0.3588660000
  6        5.148000000         0.4386320000
  7        1.967000000         0.1459180000
 S   2
  1        5.148000000        -0.1683670000
  2       0.4962000000          1.060091000
 S   1
  1       0.1533000000          1.000000000
 P   4
  1        18.16000000         0.1853900000E-01
  2        3.986000000         0.1154360000
  3        1.143000000         0.3861880000
  4       0.3594000000         0.6401140000
 P   1
  1       0.1146000000          1.000000000

 C           6.0   3.0121885787   1.8826228795  -0.5522748384
 S   7
  1        4233.000000         0.1220000000E-02
  2        634.9000000         0.9342000000E-02
  3        146.1000000         0.4545200000E-01
  4        42.50000000         0.1546570000
  5        14.19000000         0.3588660000
  6        5.148000000         0.4386320000
  7        1.967000000         0.1459180000
 S   2
  1        5.148000000        -0.1683670000
  2       0.4962000000          1.060091000
 S   1
  1       0.1533000000          1.000000000
 P   4
  1        18.16000000         0.1853900000E-01
  2        3.986000000         0.1154360000
  3        1.143000000         0.3861880000
  4       0.3594000000         0.6401140000
 P   1
  1       0.1146000000          1.000000000

 H           1.0  -3.5519842066   1.2072775216   1.8300397212
 S   3
  1        19.23840000         0.3282800000E-01
  2        2.898700000         0.2312040000
  3       0.6535000000         0.8172260000
 S   1
  1       0.1776000000          1.000000000

 H           1.0  -3.5850467306   2.5684170417   0.7427343689
 S   3
  1        19.23840000         0.3282800000E-01
  2        2.898700000         0.2312040000
  3       0.6535000000         0.8172260000
 S   1
  1       0.1776000000          1.000000000

 H           1.0  -4.7236830437   1.2375615205   0.5148508301
 S   3
  1        19.23840000         0.3282800000E-01
  2        2.898700000         0.2312040000
  3       0.6535000000         0.8172260000
 S   1
  1       0.1776000000          1.000000000

 H           1.0  -4.2510008383  -1.1104512832  -0.7866275281
 S   3
  1        19.23840000         0.3282800000E-01
  2        2.898700000         0.2312040000
  3       0.6535000000         0.8172260000
 S   1
  1       0.1776000000          1.000000000

 H           1.0  -2.6869446616  -1.7047144080  -1.3420209776
 S   3
  1        19.23840000         0.3282800000E-01
  2        2.898700000         0.2312040000
  3       0.6535000000         0.8172260000
 S   1
  1       0.1776000000          1.000000000

 H           1.0  -3.1095353841  -1.7974335116   0.3526974889
 S   3
  1        19.23840000         0.3282800000E-01
  2        2.898700000         0.2312040000
  3       0.6535000000         0.8172260000
 S   1
  1       0.1776000000          1.000000000

 H           1.0   3.1444149454   1.0357591783  -1.2176578673
 S   3
  1        19.23840000         0.3282800000E-01
  2        2.898700000         0.2312040000
  3       0.6535000000         0.8172260000
 S   1
  1       0.1776000000          1.000000000

 H           1.0   2.8933051887   2.7792286558  -1.1511310962
 S   3
  1        19.23840000         0.3282800000E-01
  2        2.898700000         0.2312040000
  3       0.6535000000         0.8172260000
 S   1
  1       0.1776000000          1.000000000

 H           1.0   3.9232593111   1.9853418123   0.0287985119
 S   3
  1        19.23840000         0.3282800000E-01
  2        2.898700000         0.2312040000
  3       0.6535000000         0.8172260000
 S   1
  1       0.1776000000          1.000000000

 H           1.0   1.5167701750   3.8367289852   1.9525158068
 S   3
  1        19.23840000         0.3282800000E-01
  2        2.898700000         0.2312040000
  3       0.6535000000         0.8172260000
 S   1
  1       0.1776000000          1.000000000

 H           1.0   1.0239075815   4.1247753918   0.2658063635
 S   3
  1        19.23840000         0.3282800000E-01
  2        2.898700000         0.2312040000
  3       0.6535000000         0.8172260000
 S   1
  1       0.1776000000          1.000000000

 H           1.0  -0.1116249384   3.4742945198   1.4528337302
 S   3
  1        19.23840000         0.3282800000E-01
  2        2.898700000         0.2312040000
  3       0.6535000000         0.8172260000
 S   1
  1       0.1776000000          1.000000000

 $END
 $ECP
SI-ECP GEN 10    2
 5      ----- d   potential   -----
    -10.00000000  1      505.31376930
    -84.92360870  2      103.22210260
    -30.32994100  2       23.45692480
    -12.10490460  2        6.75056930                                           
     -1.89454080  2        2.16031400                                           
 5      ----- s-d potential   -----                                             
      3.00000000  0      689.49107190                                           
     60.52068330  1      114.17285100                                           
    201.30861370  2       35.74243360                                           
     65.93997450  2        9.45295860                                           
     19.03007890  2        2.25435900                                           
 6      ----- p-d potential   -----                                             
      5.00000000  0       88.93793550                                           
      6.64138170  1       76.77735380                                           
    247.59724160  2       56.14809870                                           
    129.37153800  2       21.18740140                                           
     47.46171070  2        6.82772760                                           
     11.73765740  2        2.10011920                                           
SI-ECP                                                                          
SI-ECP                                                                          
C-ECP NONE                                                                      
C-ECP                                                                      
C-ECP                                                                      
C-ECP                                                                      
H-ECP NONE                                                                      
H-ECP                                                                      
H-ECP                                                                      
H-ECP                                                                      
H-ECP                                                                      
H-ECP                                                                      
H-ECP                                                                      
H-ECP                                                                      
H-ECP                                                                      
H-ECP                                                                      
H-ECP                                                                      
H-ECP                                                                      
 $END                                                                           
--- NATURAL ORBITALS OF MCSCF --- GENERATED AT  0:53:13 LT  12-OCT-2003
 $VEC   
 1  1 3.58142717E-06 9.91732298E-05-5.28770957E-05-4.09609632E-06 1.13057773E-05
 1  2-1.37347733E-04-5.05003190E-05-1.10895481E-05 1.69270555E-04 3.54435839E-04
 1  3-9.84029425E-05 1.45342311E-04 9.24358390E-05-3.31013281E-04 1.07120198E-04
 1  4 1.90048293E-04-2.34146432E-05 3.53285714E-05 1.29694168E-05 9.90686611E-06
 1  5 1.15957188E-05 2.10663086E-05-8.90992438E-06-2.56046917E-05 9.98828704E-01
 1  6 4.88530036E-03-1.08839955E-03 1.37372296E-05-2.90958260E-05 1.35190251E-04
 1  7-1.13995265E-04 1.57296482E-04 2.02365000E-05-4.59390648E-04-2.12385773E-05
 1  8-5.11164045E-05-4.15802672E-06-4.00418930E-05-1.62292003E-05 3.77542223E-05
 1  9-5.99422010E-05 1.67826811E-05-6.18104272E-05-1.42406273E-06-1.68478365E-06
 1 10-1.17507471E-06 2.42191947E-06-3.17512802E-07-5.50794741E-06-8.38692452E-06
 1 11 7.66679689E-06 7.39624611E-06 7.50316260E-06-1.31119860E-05-7.16557128E-06
 1 12-2.23638730E-06 6.18019238E-06-1.81206973E-05 3.77179366E-06-1.50978233E-05
 1 13 3.93570357E-04 1.46438855E-04 4.40929302E-04 7.03336761E-05 4.41118693E-04
 1 14 1.20083040E-04 2.67352993E-06 1.25774946E-05-7.91514561E-06 1.29117313E-05
 1 15 1.24349632E-05-7.14938786E-05 5.16696287E-07 3.53642500E-06 1.89782753E-06
 1 16-1.41280358E-05-4.35564819E-06 1.36365799E-05-1.75437756E-06 2.23596770E-06
 1 17-7.55989344E-07 1.02401817E-05 3.86096303E-07 6.04814891E-08
 2  1 2.71253811E-04 2.25023863E-04 1.04158052E-05-3.13173208E-05 5.78250033E-05
 2  2 1.47239972E-04 3.69313193E-06 9.32292647E-05 6.45063374E-05 9.98291619E-05
 2  3 1.02153249E-04 3.67015325E-06 2.23021614E-05 1.14303986E-04-2.01299080E-05
 2  4-2.86278280E-05-4.52268299E-04 3.35857211E-06 2.03388352E-04-4.69302848E-04
 2  5-3.05785677E-04-1.04572892E-05-3.83624992E-06-5.58628505E-05 6.52747384E-05
 2  6-1.08890595E-05 7.01588087E-06-1.21542892E-05 2.31826567E-06 6.36918197E-06
 2  7-1.15998640E-05-2.12926861E-05-9.74692530E-06-3.08985197E-04-9.42897434E-06
 2  8-4.43076443E-05-1.69733262E-05-2.08989274E-05-3.22700343E-06-2.90781028E-05
 2  9-6.21403959E-06 1.78418635E-05 9.99077462E-01 4.37151249E-03-1.89389340E-03
 2 10-4.20301115E-04 1.44965834E-03 3.80035160E-04-1.54370733E-04 5.91990519E-04
 2 11 1.69290211E-04-2.43081148E-04 7.31587485E-05 2.02944068E-04-1.75376665E-04
 2 12 1.71078763E-05 1.38899287E-04-8.08626812E-05 2.06064534E-05 1.71762559E-04
 2 13-4.21879834E-06 1.35867648E-05-4.41010766E-06 2.06860768E-05 5.83212118E-06
 2 14 8.07152613E-06 6.72962466E-06 1.29198750E-05-3.55511438E-06 2.13301803E-05
 2 15-1.78723177E-06-3.00687878E-06-7.47099943E-05-5.51099974E-05 2.39030581E-05
 2 16 3.88314699E-05 1.46967433E-05-8.62124520E-05 5.18417239E-04 3.80201368E-04
 2 17 5.27071040E-04 4.15724013E-04 5.18439906E-04 4.16328583E-04
 3  1-1.46563325E-05 1.55036716E-05-2.83461373E-05-2.44040098E-06-5.40144167E-06
 3  2-1.05810175E-05 9.55867141E-06 1.78922697E-05 1.58089594E-04 3.82192223E-04
 3  3-6.02203354E-05-2.13502640E-04-7.19479651E-05-1.03229490E-04-1.32689557E-04
 3  4-2.17221814E-05-2.44805263E-05-4.73329262E-05 2.77944854E-05 7.85134433E-06
 3  5 9.93121365E-06 1.37296360E-05 1.90921790E-05 2.41067605E-05 4.72413288E-04
 3  6-9.80813370E-06-8.32767540E-05-1.93792683E-05 3.17652050E-05 1.99557688E-05
 3  7 1.88816036E-05-9.18200557E-06 7.06612428E-05 9.98826153E-01 4.87533495E-03
 3  8-1.04047094E-03-4.07199773E-05-9.17235549E-05 6.24469565E-05-2.10882396E-05
 3  9-6.67796922E-05-7.27264291E-05 3.16271527E-04-4.15381009E-07-8.18674773E-06
 3 10-1.33148543E-06 7.10629035E-06 2.04261397E-06-1.21573444E-05-1.16721582E-06
 3 11-1.27527644E-05 1.76963441E-04 3.21541829E-06 2.54296386E-05-1.25415946E-05
 3 12-2.48426024E-06 5.73313974E-06-9.87274639E-06-8.88331543E-06 9.71134316E-06
 3 13 1.42224856E-05-7.73323535E-05-7.92963063E-06 4.27535876E-05-2.77348941E-06
 3 14 3.97375805E-05 4.17968139E-04 1.64223187E-04 4.30069320E-04 1.30854963E-04
 3 15 3.89180177E-04 1.82109921E-04 1.03927315E-07 1.11284232E-06-1.33072073E-06
 3 16 4.69069913E-06-2.56345756E-06-1.02542913E-05-2.25671173E-06 9.92522366E-06
 3 17 1.81357351E-06-4.58274293E-06 1.62219147E-06 2.59646062E-06
 4  1-3.05515574E-05-1.01121730E-04-3.18107681E-06-9.94839052E-06-6.16610881E-06
 4  2-5.96714656E-06-3.08281033E-05-1.25758071E-05-2.20577458E-05-1.14007665E-05
 4  3-3.06864410E-05-7.92865387E-06 4.79270812E-06 3.12266386E-05 2.43775278E-05
 4  4 2.17691030E-05 1.42266438E-04 4.57393502E-04 1.92958026E-04 2.97779527E-05
 4  5-1.11588256E-04 6.53690210E-05 6.41892014E-05-1.41352634E-04-1.04250267E-05
 4  6 4.55315087E-06-2.12217658E-06 5.09130443E-06-1.24131790E-06-2.45376334E-06
 4  7-1.57110439E-05-9.34546998E-06-1.20027328E-05-1.81637258E-04-1.28805313E-06
 4  8 2.43680894E-05 5.41752612E-06 5.64998058E-06 7.34849689E-07-5.08840759E-06
 4  9 1.95180968E-05-8.94564419E-06 1.97925400E-04 2.26702323E-05-8.22586996E-05
 4 10-8.36455628E-06-2.20375871E-05-4.91368875E-07 3.88674141E-05 1.81693256E-05
 4 11 6.82023100E-05 9.98832096E-01 4.85200540E-03-1.04122920E-03 7.40079660E-05
 4 12 3.85058019E-05-3.39284040E-05 9.11608689E-05-2.91553194E-05-3.32953590E-05
 4 13-6.55583125E-07 6.19704808E-06 1.26847590E-06 6.27519080E-06-4.24610566E-07
 4 14-1.25171179E-05-2.03537485E-06-6.89443284E-06 4.81855744E-07 3.45459313E-06
 4 15-2.86204229E-06 1.31736003E-05 4.26389602E-04 1.50454660E-04 4.09585571E-04
 4 16 1.81376389E-04 4.11221011E-04 1.48934944E-04 1.07734698E-05-7.32347275E-05
 4 17-1.01728179E-06 1.36484581E-05-7.90647137E-06 3.37020027E-05
 5  1 1.25739144E-02-1.01793639E-03 1.90877509E-03 3.06699344E-03 4.06485131E-03
 5  2 9.63038476E-03 4.17061732E-03-6.87791389E-04 1.23497813E-01 5.07296286E-03
 5  3-5.96067564E-02-7.80227707E-03 2.02456750E-02 1.98339964E-02-3.14036203E-03
 5  4-7.76648335E-03 1.09729949E-02 7.61197466E-03-4.26939363E-03-3.06636787E-03
 5  5-4.90359414E-03-2.74267695E-03-1.97376540E-03-3.27922108E-03-1.60918609E-01
 5  6 3.08472065E-01 3.46282777E-01-4.26357066E-03-5.81187476E-03 1.38181536E-02
 5  7 9.42118744E-03-7.99268390E-03-5.52021943E-03-1.16937745E-01 2.25470019E-01
 5  8 2.45006247E-01-2.95652465E-03 2.07743459E-03 7.88020401E-03 5.68814799E-04
 5  9 8.94942986E-03 1.70979036E-03-4.14981199E-03 8.30357219E-03 6.25449442E-03
 5 10-9.07231298E-04 2.15207793E-03 2.74256132E-04 4.01070342E-04 1.51697902E-03
 5 11 1.25428824E-03-5.99909307E-03 1.19382474E-02 1.05552664E-02 7.92601106E-04
 5 12 3.54243396E-04-8.42123706E-04 2.28459904E-03 9.09782599E-04-8.13191216E-05
 5 13 1.08311774E-01 1.75889487E-02 1.02828557E-01 1.19026241E-02 1.06326004E-01
 5 14 1.56106614E-02 7.65545417E-02 1.02651714E-02 7.32943358E-02 6.07104370E-03
 5 15 7.71766836E-02 1.23570588E-02 3.99517810E-03-3.06768734E-04 4.28817525E-03
 5 16 3.13769736E-04 4.47391569E-03 4.48387573E-04 3.30043438E-03 6.20156815E-04
 5 17 3.18429454E-03 1.09349259E-03 3.04251485E-03 1.28908607E-03
 6  1 2.41534742E-02 1.92353017E-02 2.49971115E-03 5.13472349E-03 3.83717211E-03
 6  2 3.08569049E-03 2.24174253E-03-3.28466817E-04 4.41330626E-03 8.70560262E-03
 6  3 1.06962939E-02 4.16789106E-05-3.28445623E-03 1.12307107E-03-2.09585237E-03
 6  4-4.48728349E-03 8.60811681E-02-3.64527334E-03 5.39419724E-02 1.28349399E-05
 6  5-4.50513873E-02-1.29084419E-02-4.14712879E-03 5.03093604E-03 1.02795421E-02
 6  6-2.02309187E-02-2.11620246E-02 9.56218380E-04-4.82217446E-04-1.28162580E-03
 6  7 7.15710919E-04 5.22719795E-04 8.66413436E-04 5.08277774E-04-7.04161520E-04
 6  8-3.00711347E-03 4.25456061E-04-7.45650766E-04-4.11598481E-04-1.29276630E-03
 6  9-2.18117963E-03 2.19168489E-03-3.18333947E-02 6.55931412E-02 4.43412874E-02
 6 10-3.02375658E-03 3.08948223E-02 1.88313596E-03-5.29134392E-03 1.35128160E-02
 6 11 2.89781050E-03-1.99047456E-01 3.80364357E-01 4.34765581E-01 1.48462767E-02
 6 12 7.48944794E-03-1.41203357E-02-1.07093004E-02 1.00517770E-04 1.11831487E-02
 6 13-7.07628447E-03-1.03993521E-03-7.14521476E-03-1.04740981E-03-6.98545231E-03
 6 14-1.70949083E-04-3.35441829E-04-5.13605447E-04-1.08568810E-06 3.58540712E-04
 6 15 1.04373554E-05-2.05687788E-03 1.31272248E-01 1.63325241E-02 1.35367596E-01
 6 16 2.01896155E-02 1.32819002E-01 1.70770216E-02 2.60379551E-02 1.14223449E-02
 6 17 2.98287559E-02 1.35123507E-02 2.42095670E-02 4.38539289E-03
 7  1 5.14925373E-03 8.64109273E-03 1.12557900E-03-9.81951551E-04 5.86689904E-04
 7  2-4.95125543E-03-5.49109261E-03-2.32905163E-03 1.81137136E-02-1.96429216E-03
 7  3 2.26779041E-03-6.83991305E-02-3.10289827E-02-1.13112373E-02 2.19381509E-02
 7  4 1.42343372E-02 6.29876752E-04 7.56090703E-03-4.72123178E-03-1.34294483E-03
 7  5 1.06973473E-04 1.38599555E-03-1.65711592E-03-5.25735840E-03 1.22898091E-01
 7  6-2.32395904E-01-2.78131930E-01 1.52774949E-02-1.86613375E-02-2.61080889E-02
 7  7-7.33616810E-03 8.43699600E-03 1.96573700E-04-1.65474210E-01 3.13824834E-01
 7  8 3.69873394E-01-7.16058204E-03-3.33148293E-02-2.15087676E-03 3.23720110E-03
 7  9 8.14913240E-03 4.21680279E-03-3.14029327E-04-2.22313097E-05 4.59780715E-03
 7 10-3.78609731E-04-4.76675475E-04-6.23002049E-05 8.22179483E-04 3.42404942E-04
 7 11 3.00044757E-03 6.40916815E-03-1.16793076E-02-1.73073693E-02-2.49531963E-04
 7 12-1.93446198E-04 3.80211880E-04 9.98948301E-04 1.07500403E-03-2.39430047E-03
 7 13-8.69245222E-02-1.33611295E-02-8.69625235E-02-2.02009753E-02-8.26146971E-02
 7 14-1.19844905E-02 1.11001527E-01 1.18516655E-02 1.14508479E-01 1.86868629E-02
 7 15 1.14514640E-01 1.56225535E-02-4.12988967E-03-1.10020410E-03-4.11928943E-03
 7 16-2.01984002E-03-4.12529122E-03 6.00414208E-04 3.47331387E-04-2.67684687E-03
 7 17-1.13978684E-04 5.02754565E-04 3.88449261E-04-2.68893997E-03
 8  1 3.40548460E-02 3.50921830E-02 2.85850944E-03 3.20153581E-03 8.97035091E-03
 8  2 7.47977553E-04 5.19996537E-03 8.54487028E-03 8.92560678E-03 6.49033827E-03
 8  3 1.06446509E-02 5.83080041E-04-7.04881786E-04 3.41731803E-03 2.06817250E-03
 8  4 4.35999473E-03-2.64351088E-03-3.32019165E-02-7.93470892E-03-1.38761944E-02
 8  5-1.14666441E-02 1.08808176E-02-3.08475933E-02-1.51750405E-02 2.92116197E-03
 8  6-5.60199497E-03-7.84424849E-03 1.30125624E-03-4.16538396E-04-2.79540068E-04
 8  7 2.92896089E-05 6.56287605E-04 8.68345527E-04 4.15910289E-03-8.22096233E-03
 8  8-8.95053721E-03 1.64028506E-03 1.25358460E-03 2.81288753E-04-3.34087518E-04
 8  9 1.06305365E-03-8.61614101E-04-1.85989446E-01 3.62981098E-01 3.57314580E-01
 8 10-5.48591831E-02 1.74779211E-01 4.52728109E-02-1.18906543E-02 4.70105351E-02
 8 11 1.19810765E-02 3.72568254E-02-7.01829091E-02-7.96603892E-02-2.35221164E-02
 8 12 3.13031336E-03 1.70723502E-02-1.08688055E-02 3.12991127E-03 4.75556294E-03
 8 13-1.80460658E-03-1.51154013E-03-2.03784577E-03-2.38634213E-04-2.48287023E-03
 8 14 7.05915132E-04-3.44270807E-03-4.62818665E-04-2.92412040E-03 2.19325688E-04
 8 15-3.14071607E-03 2.73599246E-04-3.35907784E-02-1.24797765E-02-2.47606812E-02
 8 16-4.67120563E-04-2.93216562E-02-8.58178116E-04 1.55730612E-01 4.74777924E-02
 8 17 1.57058097E-01 4.96175412E-02 1.56135073E-01 5.04105081E-02
 9  1 2.90412065E-01 2.38329927E-01 1.72028338E-02 6.07773553E-02 6.64773196E-02
 9  2 2.08209542E-02 4.11096679E-02 2.83514962E-02 1.88141409E-01 1.26387203E-01
 9  3 3.66980687E-02-5.24516215E-05-8.69358427E-03 2.09891065E-02-9.08544265E-03
 9  4-1.85987372E-02 2.06473661E-01 1.87346674E-01-6.34946480E-02-4.75863124E-02
 9  5-7.95015986E-02-3.51250173E-02-3.83590870E-03-5.40056093E-02 1.33287496E-02
 9  6-3.35886613E-02 1.62380459E-03 8.82374122E-02-5.08100635E-02-4.52608767E-02
 9  7 2.00863227E-02-1.78864496E-02-1.43514643E-02 1.61599774E-02-3.32156678E-02
 9  8-2.37975909E-02 7.28855874E-02 9.65054551E-02 1.62506771E-02 6.72376554E-03
 9  9 2.34051235E-02 8.47368377E-03 1.66638341E-02-2.95592550E-02-5.80947464E-02
 9 10-1.35165045E-02-5.33224460E-02-4.04426545E-02 8.74709213E-05 7.71390248E-03
 9 11 1.28206226E-02 2.00251427E-02-3.74315496E-02-5.33724893E-02-1.18034687E-01
 9 12-3.24372040E-02 3.57329755E-02-7.61699783E-03-5.44776350E-03 1.21325066E-02
 9 13-1.91660056E-02-1.50260253E-02-2.89882687E-02-1.75137249E-02-4.07237315E-02
 9 14-3.58459596E-02-4.67059191E-02-4.21802704E-02-2.22960095E-02-1.23536443E-02
 9 15-2.87151180E-02-2.51495976E-02-1.93771823E-02-1.57281351E-02-3.11933301E-02
 9 16-2.40003203E-02-5.30851819E-02-3.99506517E-02-3.72091132E-02-3.18269609E-02
 9 17-1.31605558E-02-6.41434853E-03-1.07313840E-02-7.23135952E-03
10  1 7.68649601E-02 7.69249492E-02-2.61526399E-03 1.27943259E-02 1.36631869E-02
10  2-2.48127833E-02-7.39957335E-04 8.68042402E-03-1.79909724E-01-1.13471500E-01
10  3 1.43669987E-01 3.46646404E-02-4.55194380E-02 3.10190069E-02 1.48268113E-02
10  4-1.03968193E-02 7.37920349E-02 5.79879768E-02 1.16298581E-02-5.93294635E-03
10  5-3.41425365E-02-3.96012527E-03 1.83935915E-03-1.42021197E-02-1.02546347E-02
10  6 2.73126743E-02-1.28852648E-02-3.48649528E-02 3.47782732E-01 8.70585379E-02
10  7-1.32023306E-02 9.61065745E-02 3.03572897E-02-1.14130479E-02 2.81869305E-02
10  8-1.40096797E-03 7.28935779E-02-2.41125318E-01-1.60822364E-01 1.78096034E-02
10  9-6.92635255E-02-3.99726615E-02 4.25883288E-03-6.38960640E-03-2.33051644E-02
10 10-4.50732721E-03-1.25975512E-03-5.40197322E-02-2.66333223E-03 7.81239152E-03
10 11-9.00271924E-03 3.37785575E-03-9.13846082E-03 7.75398534E-03-9.88009869E-02
10 12-9.75968279E-03 1.78770871E-02-3.00554300E-02-4.73519911E-03 1.01841725E-02
10 13-1.32179842E-03 5.95997805E-03 1.85789298E-01 1.36690185E-01-3.22082566E-02
10 14-1.16073224E-02-1.99826562E-02-4.65089383E-03 1.49670674E-01 1.09452767E-01
10 15 1.16856995E-02 1.45965753E-02-9.94219849E-03-8.85142079E-03-5.49729966E-03
10 16-6.31474000E-03-4.23389149E-02-3.38170558E-02-2.67271141E-02-1.95647230E-02