! EXAM37.
!
! 3-A-2 dianion of H3CN    DFT/B3LYP1/6-31+G*
!
! Note, dianions normally do not exist in reality
!
! Closed shell DFT/B3LYP1 geometry optimization using analytical gradients 
!
! Direct SCF is requested
!
! At the initial geometry:
!
! FINAL ENERGY IS      -94.2985824319 AFTER  30 ITERATIONS
! DFT EXCHANGE + CORRELATION ENERGY IS      -11.0839278758
! INTEGRATED TOTAL ELECTRON NUMBER  IS       18.0000018078
!
! RMS GRADIENT = 0.0314797
!
! FULLY SUBSTITUTED Z-MATRIX IS:
! N   
! C        1   1.4329216
! H        2   1.0876477    1   110.2192800
! H        2   1.0876477    1   110.2192800    3   120.0000000    0
! H        2   1.0876477    1   110.2192800    3  -120.0000000    0
!
!------------------------------------------------------------------------------
!
! After 7 steps at the optimized geometry:
!
! FINAL ENERGY IS      -94.3219903070 AFTER   4 ITERATIONS
! DFT EXCHANGE + CORRELATION ENERGY IS      -11.0446974508
! INTEGRATED TOTAL ELECTRON NUMBER  IS       17.9999955875
!
! RMS GRADIENT = 0.0000266
!
! FULLY SUBSTITUTED Z-MATRIX IS
! N   
! C        1   1.3098616
! H        2   1.2306835    1   119.7729129
! H        2   1.2306835    1   119.7729129    3   120.0000000    0
! H        2   1.2306835    1   119.7729129    3  -120.0000000    0
!
 $CONTRL 
   SCFTYP=RHF MULT=1 ICHARG=-2 RUNTYP=OPTIMIZE COORD=ZMT DFTTYP=B3LYP1 
 $END
 $SYSTEM TIMLIM=30 MEMORY=300000 $END
 $BASIS  GBASIS=N31 NGAUSS=6 NDFUNC=1 NPFUNC=0 diffsp=.t. $END
 $GUESS  GUESS=HUCKEL $END
 $SCF DIRSCF=.T. $END
 $DATA
Methylnitrene dianion, B3LYP1/6-31+G* optimization
Cnv 3

N
C  1  rCN
H  2  rCH  1  aHCN
H  2  rCH  1  aHCN  3  120.0
H  2  rCH  1  aHCN  3 -120.0

rCN=1.4329216
rCH=1.0876477
aHCN=110.21928
 $END
