! EXAM 19.
!
! Spin-orbit coupling example.
!
! Energies for the singlet CI are
!   State=   1 Energy=      -54.8685312165 (1-delta)
!   State=   2 Energy=      -54.8685312165 (1-delta)
!   State=   3 Energy=      -54.7988367323 (1-sigma-plus)
! Energies for the triplet CI are
!   State=   1 Energy=      -54.9382257007 (3-sigma-minus)
!
! If run as METHOD=ZEFF, with ZEFF taken as true atomic Z,
! then inclusion of only the 1e- operator gives SO coupling of 
! 114.3851 wavenumbers, and after diagonalization of the spin-orbit 
! Hamiltonian, the relative energies of all 6 levels in the pi**2 
! configuration are:
!
! E = -15296.859,-15296.432,-15296.432,0.000,0.000, and 15296.859 wavenumbers
!
! Why are there six levels? The singlet-delta is two roots,
! the singlet-sigma-plus is a third.  During the CI, the
! spatial triplet-sigma-minus is one CSF, with alpha/alpha
! spin, hence IROOTS=3,1.  The final spin-orbit Hamiltonian
! includes all three triplet spin states, namely adding the
! ab+ba and beta/beta triplets.  So, 2+1+3=6 levels.  You
! can work out for yourself these have the quantum number
! omega=0,0,1,2.  Only the omega=0 states can interact,
! raising the triplet's degeneracy and slightly affecting
! the singlet-sigma-plus state's position.
!
! Note that the lower multiplicity CIDRT1 is done in C1
! symmetry to generate both components of the delta state.
!
 $CONTRL SCFTYP=NONE MULT=3 CITYP=GUGA RUNTYP=SPINORBT UNITS=BOHR $END
 $SYSTEM TIMLIM=2 MEMORY=1000000 $END
 $BASIS GBASIS=N31 NGAUSS=6 $END
 $TRANST 
   METHOD=ZEFF NFZC=3 NOCC=5 NUMVEC=1 NUMCI=2 IROOTS(1)=3,1 
 $END
 $CIDRT1 GROUP=C1  IEXCIT=2 NFZC=3 NDOC=1 NVAL=1 $END
 $CIDRT2 GROUP=C4V IEXCIT=2 NFZC=3 NALP=2 $END
 $DATA
Imidogen radical
Cnv 4

NITROGEN    7.0
HYDROGEN    1.0     0.0   0.0   1.9748
 $END
--- ROHF ORBITALS --- GENERATED AT 16:35:07 16-SEP-2016    
Imidogen radical                                                                
E(ROHF)=      -54.9382257007, E(NUC)=    3.5446627507,    8 ITERS
 $VEC1
 1  1-9.97073281E-01-1.91214515E-02 0.00000000E+00 0.00000000E+00-2.36016055E-03
 1  2 9.66111857E-03 0.00000000E+00 0.00000000E+00 2.13067952E-03 5.62009143E-04
 1  3-3.44278457E-03
 2  1 1.79300889E-01-4.10265477E-01 0.00000000E+00 0.00000000E+00-2.27571381E-01
 2  2-3.83219408E-01 0.00000000E+00 0.00000000E+00-1.18321663E-01-2.61608105E-01
 2  3-7.12373244E-02
 3  1 1.26216962E-01-2.78613460E-01 0.00000000E+00 0.00000000E+00 4.52995545E-01
 3  2-4.82312170E-01 0.00000000E+00 0.00000000E+00 2.72710778E-01 2.31321607E-01
 3  3 2.10846318E-01
 4  1 0.00000000E+00 0.00000000E+00 0.00000000E+00-6.71321824E-01 0.00000000E+00
 4  2 0.00000000E+00 0.00000000E+00-4.70445408E-01 0.00000000E+00 0.00000000E+00
 4  3 0.00000000E+00
 5  1 0.00000000E+00 0.00000000E+00-6.71321824E-01 0.00000000E+00 0.00000000E+00
 5  2 0.00000000E+00-4.70445408E-01 0.00000000E+00 0.00000000E+00 0.00000000E+00
 5  3 0.00000000E+00
 6  1 7.36851440E-02-1.43290330E-01 0.00000000E+00 0.00000000E+00-3.26478067E-01
 6  2-1.02184945E+00 0.00000000E+00 0.00000000E+00-8.07276619E-01 7.82959589E-02
 6  3 1.76226459E+00
 7  1 0.00000000E+00 0.00000000E+00-9.58419046E-01 0.00000000E+00 0.00000000E+00
 7  2 0.00000000E+00 1.07141084E+00 0.00000000E+00 0.00000000E+00 0.00000000E+00
 7  3 0.00000000E+00
 8  1 0.00000000E+00 0.00000000E+00 0.00000000E+00-9.58419046E-01 0.00000000E+00
 8  2 0.00000000E+00 0.00000000E+00 1.07141084E+00 0.00000000E+00 0.00000000E+00
 8  3 0.00000000E+00
 9  1-6.00738468E-02 5.99272572E-01 0.00000000E+00 0.00000000E+00-7.39008353E-01
 9  2-3.36089381E-01 0.00000000E+00 0.00000000E+00 1.18000820E+00-5.28801119E-01
 9  3-3.52885576E-02
10  1-1.39254368E-04-6.71797289E-01 0.00000000E+00 0.00000000E+00 3.93536018E-01
10  2 9.13508849E-01 0.00000000E+00 0.00000000E+00 3.04066252E-01-1.21292684E+00
10  3 4.07553809E-01
11  1-5.08094265E-02 1.41498587E+00 0.00000000E+00 0.00000000E+00 6.27815323E-01
11  2-2.22349513E+00 0.00000000E+00 0.00000000E+00-1.15113704E+00-3.26442423E-01
11  3 1.58015531E+00
 $END

