! EXAM39.
!
! This is integral-direct frozen core MP4-SDQ/6-31G* energy run on 
! silacyclobutane, with 80 AOs.
!
! E(RHF)       =      -407.1472108451
!                                    
! E(D,2)       =        -0.4714528468
! E(MP2)       =      -407.6186636919
!                                    
! E(D,3)       =        -0.0404912572
! E(D,2+3)     =        -0.5119441040
! E(MP3)       =      -407.6591549491
!                                    
! E(S,4)       =        -0.0038909851
! E(D,4)       =        -0.0131604260
! E(D,2+3+4)   =        -0.5251045300
! E(R+Q,4)     =         0.0083550070
! E(SDQ,4)     =        -0.0086964042          
! E(SDQ,2+3+4) =        -0.5206405081
! E(MP4-SDQ)   =      -407.6678513532          
!
 $CONTRL SCFTYP=RHF  RUNTYP=ENERGY  UNITS=ANGS MPLEVL=4 $END
 $SYSTEM TIMLIM=600 MEMORY=1000000 $END
 $BASIS  GBASIS=N31 NGAUSS=6 NDFUNC=1 $END
 $GUESS  GUESS=HUCKEL $END
 $SCF DIRSCF=.T. $END
 $MP4 SDTQ=.F. $END
 $DATA
MP4-SDQ/6-31G*//RHF/3-21G* Silacyclobutane
CS

SILICON    14.0    -0.081722       1.055710
CARBON      6.0    -0.081722      -0.395331       1.217568
CARBON      6.0     0.319935      -1.329102
HYDROGEN    1.0    -1.222554       1.998369
HYDROGEN    1.0     1.168317       1.848237
HYDROGEN    1.0     0.604981      -0.419640       2.052727
HYDROGEN    1.0    -1.077445      -0.641554       1.572232
HYDROGEN    1.0     1.388834      -1.500162
HYDROGEN    1.0    -0.184517      -2.285408
 $END
