! EXAM68.
!
! Test of water DFT EFPs... 
! DFT/PBE0 optimization of formamide/three water complex using direct SCF.
! Default integration grid is used for DFT          
!
! At the initial geometry:
!
! FINAL ENERGY IS     -169.7886700722 AFTER  10 ITERATIONS
! DFT EXCHANGE + CORRELATION ENERGY IS      -16.6159171698
! INTEGRATED TOTAL ELECTRON NUMBER  IS       24.0000019982
!
! FULLY SUBSTITUTED Z-MATRIX IS
! C   
! O        1   1.1962565
! N        1   1.3534065    2   124.9338400
! H        3   0.9948420    1   119.1600000    2     0.0000015    0
! H        3   0.9921367    1   121.2247700    2   179.9999991    0
! H        1   1.0918368    2   122.3082200    4   180.0000000    0
!
! RMS gradient = 0.0134215
!
! At the final geometry at nserch = 40:
!
! FINAL ENERGY IS     -169.8034388411 AFTER   6 ITERATIONS
! DFT EXCHANGE + CORRELATION ENERGY IS      -16.5880149584
! INTEGRATED TOTAL ELECTRON NUMBER  IS       23.9999997141
!
! FULLY SUBSTITUTED Z-MATRIX IS:
! C   
! O        1   1.2285136
! N        1   1.3436970    2   126.0842616
! H        3   1.0166024    1   122.8139475    2    -0.1900955    0
! H        3   1.0073260    1   118.0750219    2   178.2509872    0
! H        1   1.1062330    2   120.8564466    4  -179.6645005    0
!
! RMS gradient = 0.0000262
!
 $contrl scftyp=rhf runtyp=optimize coord=zmt dfttyp=pbe0 $end
 $system memory=1500000 $end
 $basis  gbasis=dh npfunc=1 ndfunc=1 $end
 $scf dirscf=.t. $end
 $data
formamide with three effective fragment waters
C1
C
O 1 rCO
N 1 rCN  2 aNCO
H 3 rNHa 1 aCNHa 2 0.0
H 3 rNHb 1 aCNHb 2 180.0
H 1 rCH  2 aHCO  4 180.0

rCO=1.1962565
rCN=1.3534065
rNHa=0.9948420
rNHb=0.9921367
rCH=1.0918368
aNCO=124.93384
aCNHa=119.16000
aCNHb=121.22477
aHCO=122.30822
 $end
 $efrag
coord=int
fragname=H2Odft
O1  4 1.926      3 175.0     1 180.0
H2  7 0.9438636  4 117.4     3 -175.0
H3  7 0.9438636  8 106.70327 4 95.0
fragname=H2Odft
O1  8 1.901      7 175.0     4 0.0
H2 10 0.9438636  8 110.0     4 -5.0
H3 10 0.9438636 11 106.70327 8 -95.0
fragname=H2Odft
H2  2 1.951      1 150.0     3 0.0
O1 13 0.9438636  2 177.0     3 0.0
H3 14 0.9438636 13 106.70327 3 140.0
 $end
