! EXAM23.
!
! semiempirical calculation, using the MOPAC/Firefly combo
! AM1 gets the geometry disasterously wrong!
!
! initial geometry,            MNDO       AM1         PM3
! FINAL HEAT OF FORMATION   105.14088   93.45997  46.89387
! RMS gradient              0.0818157  0.1008587 0.0366232
! final geometry (# steps),      7         13         8
! FINAL HEAT OF FORMATION    46.45648   -1.81730   -2.79646
! RMS gradient              0.0000145  0.0000039  0.0000096
! r(SiH)                      1.42106    1.45810    1.52100
! a(HSiH)                     101.955    120.000     96.266
!
! At the final PM3 geometry, the charge on Silicon is -0.4681,
! and the dipole moment is 2.344755 Debye.
!
 $CONTRL SCFTYP=RHF RUNTYP=OPTIMIZE COORD=ZMT ICHARG=-1 $END
 $SYSTEM TIMLIM=5 MEMORY=2000000 $END
 $BASIS  GBASIS=PM3 $END
 $DATA
Silyl anion...comparison of semiempirical models
Cnv 3

Si
H  1  rSiH
H  1  rSiH  2 aHSiH
H  1  rSiH  2 aHSiH  3   aHSiH  -1

rSiH=1.15
aHSiH=110.0
 $END
