! EXAM 18.
!
! effective core potential...diatomic P2...RHF/ECP-31G*
! See Stevens,Basch,Krauss, J.Chem.Phys. 81,6026-33(1984).
!
! Firefly FINAL E= -12.6956517412, RMS gradient=0.000204817
!
 $CONTRL SCFTYP=RHF RUNTYP=GRADIENT ECP=SBK NZVAR=1 $END
 $SYSTEM TIMLIM=15 MEMORY=300000 $END
 $GUESS  GUESS=HUCKEL $END
 $ZMAT   IZMAT(1)=1,1,2 $END
 $DATA
diatomic phosphorous
Dnh      4
 
PHOSPHORUS 15.0    0.0      0.0        0.9395
   SBK
   D 1
     1 0.45 1.0
 
 $END
