! EXAM58.
!
! cis-Butadiene/cc-pvdz at MP2-fc/cc-pvtz geometry
!
! direct AO-based TDHF energy computation for the five lowest triplet states 
! of A1 symmetry. Chemical core orbitals are frozen.
!
! FINAL RHF ENERGY IS -154.9277076503 AFTER 8 ITERATIONS
!
! -----------------------------------------------------------------------------
!                              TDHF EXCITATION ENERGIES
! STATE       HARTREE        EV      KCAL/MOL       CM-1   NANOMETERS  OSC. STR.
! -----------------------------------------------------------------------------
! 3A1     0.0975545819    2.6546     61.2164     21410.76     467.05  0.0000000
! 3A1     0.3463509614    9.4247    217.3385     76015.25     131.55  0.0000000
! 3A1     0.3948226259   10.7437    247.7550     86653.55     115.40  0.0000000
! 3A1     0.4136418476   11.2558    259.5642     90783.89     110.15  0.0000000
! 3A1     0.4393461225   11.9552    275.6939     96425.33     103.71  0.0000000
!
 $contrl scftyp=rhf inttyp=hondo d5=.t. wide=.t. cityp=tdhf $end
 $guess guess=moread norb=90 asis=.t. $end
 $scf dirscf=.t. $end
 $tdhf nstate=5 istsym=1 mult=3 $end
 $DATA
 C4H6/cc-pvdz at MP2-fc/cc-pvtz geometry
CNV      2

CARBON      6.0      1.5254553890      0.0000000000     -0.5229952780
   S          8
     1      6665.0000000000  0.00069200
     2      1000.0000000000  0.00532900
     3       228.0000000000  0.02707700
     4        64.7100000000  0.10171800
     5        21.0600000000  0.27474000
     6         7.4950000000  0.44856400
     7         2.7970000000  0.28507400
     8         0.5215000000  0.01520400
   S          8
     1      6665.0000000000 -0.00014600
     2      1000.0000000000 -0.00115400
     3       228.0000000000 -0.00572500
     4        64.7100000000 -0.02331200
     5        21.0600000000 -0.06395500
     6         7.4950000000 -0.14998100
     7         2.7970000000 -0.12726200
     8         0.5215000000  0.54452900
   S          1
     1         0.1596000000  1.00000000
   P          3
     1         9.4390000000  0.03810900
     2         2.0020000000  0.20948000
     3         0.5456000000  0.50855700
   P          1
     1         0.1517000000  1.00000000
   D          1
     1         0.5500000000  1.00000000
           
CARBON      6.0      0.7339212060      0.0000000000      0.5577187220
   S          8
     1      6665.0000000000  0.00069200
     2      1000.0000000000  0.00532900
     3       228.0000000000  0.02707700
     4        64.7100000000  0.10171800
     5        21.0600000000  0.27474000
     6         7.4950000000  0.44856400
     7         2.7970000000  0.28507400
     8         0.5215000000  0.01520400
   S          8
     1      6665.0000000000 -0.00014600
     2      1000.0000000000 -0.00115400
     3       228.0000000000 -0.00572500
     4        64.7100000000 -0.02331200
     5        21.0600000000 -0.06395500
     6         7.4950000000 -0.14998100
     7         2.7970000000 -0.12726200
     8         0.5215000000  0.54452900
   S          1
     1         0.1596000000  1.00000000
   P          3
     1         9.4390000000  0.03810900
     2         2.0020000000  0.20948000
     3         0.5456000000  0.50855700
   P          1
     1         0.1517000000  1.00000000
   D          1
     1         0.5500000000  1.00000000
           
HYDROGEN    1.0      2.5999509250      0.0000000000     -0.4187888660
   S          3
     1        13.0100000000  0.01968500
     2         1.9620000000  0.13797700
     3         0.4446000000  0.47814800
   S          1
     1         0.1220000000  1.00000000
   P          1
     1         0.7270000000  1.00000000
           
HYDROGEN    1.0      1.1240914080      0.0000000000     -1.5269835090
   S          3
     1        13.0100000000  0.01968500
     2         1.9620000000  0.13797700
     3         0.4446000000  0.47814800
   S          1
     1         0.1220000000  1.00000000
   P          1
     1         0.7270000000  1.00000000
           
HYDROGEN    1.0      1.2061337000      0.0000000000      1.5323262580
   S          3
     1        13.0100000000  0.01968500
     2         1.9620000000  0.13797700
     3         0.4446000000  0.47814800
   S          1
     1         0.1220000000  1.00000000
   P          1
     1         0.7270000000  1.00000000
           
 $END      
 $VEC   
 1  1 -6.08128531677048600D-02  1.59987211743755200D-04 -1.53969335977275800D-03  9.22189903984534900D-05 -5.64659807924812400D-21
 1  2  7.19616602090622200D-05 -8.66437625850790700D-04  5.30522510904515300D-20 -7.23220015823322800D-04  3.91603405194767600D-05
 1  3 -7.64648897289895300D-05  3.73045492093952400D-05 -8.17501374700109600D-21  1.46265608753360900D-05 -8.95588969129532200D-22
 1  4 -6.08128531677048600D-02  1.59987211743755200D-04 -1.53969335977275800D-03 -9.22189903984534900D-05 -5.64659807925497100D-21
 1  5  7.19616602090622200D-05  8.66437625850790700D-04  5.30522510903138600D-20 -7.23220015823322800D-04  3.91603405194767600D-05
 1  6 -7.64648897289895300D-05  3.73045492093952400D-05  8.17501374707588500D-21 -1.46265608753360900D-05 -8.95588969121104400D-22
 1  7 -7.05813841090133700D-01 -2.98891065125404000D-03  5.23962450192756600D-03  1.52089544235108500D-04 -9.31249111101594300D-21
 1  8  2.43477650641634700D-05 -5.42030228388150200D-04  3.31886830827221500D-20 -5.66148344010058100D-04  1.29031542286344900D-04
 1  9  1.72603862755465700D-04 -3.01635405041812600D-04  3.08067986596582400D-21 -2.92739604974221700D-05  1.79245390133754400D-21
 1 10 -7.05813841090133700D-01 -2.98891065125404000D-03  5.23962450192756600D-03 -1.52089544235108500D-04 -9.31249111101039400D-21
 1 11  2.43477650641634700D-05  5.42030228388150200D-04  3.31886830820701500D-20 -5.66148344010058100D-04  1.29031542286344900D-04
 1 12  1.72603862755465700D-04 -3.01635405041812600D-04 -3.08067986598859200D-21  2.92739604974221700D-05  1.79245390133130400D-21
 1 13 -3.19677813774993100D-05 -3.88609373356597400D-04 -6.18624000870200300D-05  3.78785441045304900D-21 -1.24922844281767700D-05
 1 14 -3.19677813774993100D-05 -3.88609373356597400D-04  6.18624000870200300D-05  3.78785441047362300D-21 -1.24922844281767700D-05
 1 15  8.37323502266503000D-05 -1.65892632635240000D-04  1.94381194657824700D-05 -1.19020223020862200D-21 -5.91176951114367500D-05
 1 16  8.37323502266503000D-05 -1.65892632635240000D-04 -1.94381194657824700D-05 -1.19020223020694200D-21 -5.91176951114367500D-05
 1 17  2.33740297610017700D-04 -9.10468890935298600D-04  1.73223165122483300D-04 -1.06065094319291000D-20 -2.49667333715666800D-04
 1 18  2.33740297610017700D-04 -9.10468890935298600D-04 -1.73223165122483300D-04 -1.06065094318924900D-20 -2.49667333715666800D-04
 2  1 -6.85946176845603800D-02  9.71436470153527000D-06 -1.13567688198027900D-03  5.71647844155630100D-05 -3.50021791050844800D-21
 2  2  9.60352415262680700D-05 -8.12436346998344700D-04  4.97457356305422300D-20 -3.72085291110394800D-04  1.75143090492063100D-05
 2  3 -2.96686010452694300D-04  2.79171701403312700D-04 -2.22148048979383000D-20 -3.53733819599485300D-06  2.16592341529551000D-22
 2  4  6.85946176845603800D-02 -9.71436470153527000D-06  1.13567688198027900D-03  5.71647844155630100D-05  3.50021791051004000D-21
 2  5 -9.60352415262680700D-05 -8.12436346998344700D-04 -4.97457356304992200D-20  3.72085291110394800D-04 -1.75143090492063100D-05
 2  6  2.96686010452694300D-04 -2.79171701403312700D-04 -2.22148048979910700D-20 -3.53733819599485300D-06 -2.16592341513837400D-22
 2  7 -7.05414777526487300D-01 -3.37000842909475400D-03  8.03608453897603300D-03  8.68660921650439400D-05 -5.31883841985012500D-21
 2  8  6.89051950161179100D-05  1.51667156183820000D-03 -9.28662815643703100D-20 -1.42300571138231400D-03 -4.01317223620139900D-04
 2  9  6.08396352340359700D-04 -2.07079128720219400D-04  7.13894566636472200D-20 -2.63763911583898500D-04  1.61503481017284700D-20
 2 10  7.05414777526487300D-01  3.37000842909475400D-03 -8.03608453897603300D-03  8.68660921650439400D-05  5.31883841985317800D-21
 2 11 -6.89051950161179100D-05  1.51667156183820000D-03  9.28662815645064800D-20  1.42300571138231400D-03  4.01317223620139900D-04
 2 12 -6.08396352340359700D-04  2.07079128720219400D-04  7.13894566636707700D-20 -2.63763911583898500D-04 -1.61503481017401200D-20
 2 13 -5.20390491071738700D-05 -2.92765321861064900D-04 -5.35051977907761300D-05  3.27614025884866900D-21 -3.23305340541552900D-05
 2 14  5.20390491071738700D-05  2.92765321861064900D-04 -5.35051977907761300D-05 -3.27614025886207900D-21  3.23305340541552900D-05
 2 15 -8.90213118846696700D-05 -1.78630215293126000D-04  1.87189052899176600D-05 -1.14616451773306600D-21 -1.45744059228483200D-04
 2 16  8.90213118846696700D-05  1.78630215293126000D-04  1.87189052899176600D-05  1.14616451773018200D-21  1.45744059228483200D-04
 2 17  2.58923940899799600D-04 -3.09374253551373300D-04  1.80682587764946600D-04 -1.10632522501066100D-20 -3.12954682343111500D-04
 2 18 -2.58923940899799600D-04  3.09374253551373300D-04  1.80682587764946600D-04  1.10632522500956700D-20  3.12954682343111500D-04
 3  1  7.05320910793283600D-01  3.28341462477861100D-03 -5.46990466178954400D-03  7.20021912240653600D-05 -4.40871704310690700D-21
 3  2  5.66095898300397400D-05 -2.58128103038125200D-04  1.58052657539879900D-20 -2.03312881389694900D-04  2.52361066106809300D-04
 3  3 -5.43337189855247900D-04  2.90976123748131200D-04 -5.62579998068579100D-20  8.27583942662613400D-05 -5.06732277253590700D-21
 3  4 -7.05320910793283600D-01 -3.28341462477861100D-03  5.46990466178954400D-03  7.20021912240653600D-05  4.40871704310551700D-21
 3  5 -5.66095898300397400D-05 -2.58128103038125200D-04 -1.58052657540725400D-20  2.03312881389694900D-04 -2.52361066106809300D-04
 3  6  5.43337189855247900D-04 -2.90976123748131200D-04 -5.62579998068276700D-20  8.27583942662613400D-05  5.06732277252419700D-21
 3  7 -6.91080405685093300D-02 -4.69256129555074800D-04  5.89812668823314800D-04  1.06417331235358000D-04 -6.51596699938773100D-21
 3  8  6.73425491387274600D-05 -9.77203250609214200D-04  5.98344654835589300D-20 -3.42953826688479800D-04 -2.73921607187499100D-04
 3  9  4.45724892974289100D-04 -1.71803285786807600D-04  5.08809367919908300D-20 -1.21190320003037700D-06  7.42052179494223500D-23
 3 10  6.91080405685093300D-02  4.69256129555074800D-04 -5.89812668823314800D-04  1.06417331235358000D-04  6.51596699937626600D-21
 3 11 -6.73425491387274600D-05 -9.77203250609214200D-04 -5.98344654836335100D-20  3.42953826688479800D-04  2.73921607187499100D-04
 3 12 -4.45724892974289100D-04  1.71803285786807600D-04  5.08809367919762500D-20 -1.21190320003037700D-06 -7.42052179480647700D-23
 3 13 -2.78118853724888800D-04  7.85488902283619800D-04 -4.02791063980004100D-04  2.46630248106389300D-20  6.16341330380896300D-05
 3 14  2.78118853724888800D-04 -7.85488902283619800D-04 -4.02791063980004100D-04 -2.46630248106399400D-20 -6.16341330380896300D-05
 3 15 -2.66369034431986900D-04  1.16787526402669500D-03  2.01685673994596200D-04 -1.23492778924290200D-20 -3.31181820437317900D-04
 3 16  2.66369034431986900D-04 -1.16787526402669500D-03  2.01685673994596200D-04  1.23492778924440900D-20  3.31181820437317900D-04
 3 17  1.57442186648428100D-04 -7.93279397009476100D-05  5.40099536948550300D-05 -3.30704662321253500D-21 -1.88245727392411200D-04
 3 18 -1.57442186648428100D-04  7.93279397009476100D-05  5.40099536948550300D-05  3.30704662322465000D-21  1.88245727392411200D-04
 4  1  7.05964884798241600D-01  3.15146665657020000D-03 -5.38697489721840800D-03  1.40028857393510000D-05 -8.57401142414982000D-22
 4  2  4.63601594587392500D-05 -1.72934405343097700D-04  1.05888285790825100D-20 -3.69622537419281800D-04  2.32065406414299600D-04
 4  3 -5.52832578601727400D-04  3.20767172187349200D-04 -5.54943916975378400D-20  8.50915514201801100D-05 -5.21018272628263700D-21
 4  4  7.05964884798241600D-01  3.15146665657020000D-03 -5.38697489721840800D-03 -1.40028857393510000D-05 -8.57401142410816800D-22
 4  5  4.63601594587392500D-05  1.72934405343097700D-04  1.05888285786826800D-20 -3.69622537419281800D-04  2.32065406414299600D-04
 4  6 -5.52832578601727400D-04  3.20767172187349200D-04  5.54943916975800900D-20 -8.50915514201801100D-05 -5.21018272629297200D-21
 4  7 -6.15032324498778500D-02 -6.24499122878953000D-04  1.64080306591246400D-03  1.62208872227033600D-04 -9.93210077878398500D-21
 4  8  1.36241786056409000D-04 -2.69652779014289700D-04  1.65109253251823000D-20 -6.13661110142416600D-04 -2.47143772215791200D-05
 4  9  2.03415980671560100D-04 -1.78701603449980600D-04  1.61294278755547200D-20 -7.47258242092430500D-05  4.57548595607267400D-21
 4 10 -6.15032324498778500D-02 -6.24499122878953000D-04  1.64080306591246400D-03 -1.62208872227033600D-04 -9.93210077877476400D-21
 4 11  1.36241786056409000D-04  2.69652779014289700D-04  1.65109253254937600D-20 -6.13661110142416600D-04 -2.47143772215791200D-05
 4 12  2.03415980671560100D-04 -1.78701603449980600D-04 -1.61294278756616000D-20  7.47258242092430500D-05  4.57548595605263200D-21
 4 13 -2.48301415159001600D-04  9.43761479006178800D-04 -3.68757931827378300D-04  2.25791653169083100D-20  9.00804249601294600D-05
 4 14 -2.48301415159001600D-04  9.43761479006178800D-04  3.68757931827378300D-04  2.25791653169123400D-20  9.00804249601294600D-05
 4 15 -2.99070369670786400D-04  7.73455245779159800D-04  1.89998695881042000D-04 -1.16336805097023000D-20 -3.46951720694193700D-04
 4 16 -2.99070369670786400D-04  7.73455245779159800D-04 -1.89998695881042000D-04 -1.16336805096866600D-20 -3.46951720694193700D-04
 4 17  1.20060474849614000D-04  1.60418548745164700D-04  4.34041400812466600D-05 -2.65764928628188700D-21 -1.45810242407223400D-04
 4 18  1.20060474849614000D-04  1.60418548745164700D-04 -4.34041400812466600D-05 -2.65764928628723000D-21 -1.45810242407223400D-04
 5  1  1.24126624739054800D-02 -1.78647532387809400D-01 -8.83003845256880900D-02 -5.89665095853788000D-02  3.61053811504918700D-18
 5  2 -6.51620610907476800D-02  5.63295751804408100D-03 -3.44907778369783300D-19 -1.33983319141223200D-02 -1.40631976070444100D-03
 5  3  5.09941988691456400D-03 -3.69310012621014300D-03  4.59973233693544300D-19 -1.29981699684610600D-02  7.95882076572068500D-19
 5  4  1.24126624739054800D-02 -1.78647532387809400D-01 -8.83003845256880900D-02  5.89665095853788000D-02  3.61053811504911200D-18
 5  5 -6.51620610907476800D-02 -5.63295751804408100D-03 -3.44907778371047600D-19 -1.33983319141223200D-02 -1.40631976070444100D-03
 5  6  5.09941988691456400D-03 -3.69310012621014300D-03 -4.59973233693389800D-19  1.29981699684610600D-02  7.95882076571993600D-19
 5  7  1.84518879333059800D-02 -2.51107870269236500D-01 -1.63310377539730500D-01 -1.94700466329849600D-02  1.19215714079856500D-18
 5  8  5.91797684438701100D-02 -1.22505638438717200D-02  7.50105916053479500D-19  2.54020253148213100D-02 -1.36572395020115100D-02
 5  9  1.29593531137524000D-02  6.97886388259125100D-04  1.88186445177718100D-18 -8.38012605067068800D-03  5.13117780374171000D-19
 5 10  1.84518879333059800D-02 -2.51107870269236500D-01 -1.63310377539730500D-01  1.94700466329849600D-02  1.19215714079857100D-18
 5 11  5.91797684438701100D-02  1.22505638438717200D-02  7.50105916057719400D-19  2.54020253148213100D-02 -1.36572395020115100D-02
 5 12  1.29593531137524000D-02  6.97886388259125100D-04 -1.88186445177809500D-18  8.38012605067068800D-03  5.13117780374204100D-19
 5 13 -5.51591627739383700D-02  3.24981042732958400D-03 -1.00574084450874100D-02  6.15818314242000000D-19 -1.29743188254276300D-03
 5 14 -5.51591627739383700D-02  3.24981042732958400D-03  1.00574084450874100D-02  6.15818314242088200D-19 -1.29743188254276300D-03
 5 15 -6.70362662675988600D-02 -7.15241776827398700D-03  2.18073806513501100D-03 -1.33527284529337800D-19 -1.09462183429606600D-02
 5 16 -6.70362662675988600D-02 -7.15241776827398700D-03 -2.18073806513501100D-03 -1.33527284529327400D-19 -1.09462183429606600D-02
 5 17 -8.51296630425181400D-02 -8.96255220991859700D-03 -6.37291521745310000D-03  3.90215623383361500D-19  1.21415810404526300D-02
 5 18 -8.51296630425181400D-02 -8.96255220991859700D-03  6.37291521745310000D-03  3.90215623383076800D-19  1.21415810404526300D-02
 6  1  1.82662608356929700D-02 -2.40339223979571100D-01 -1.23703954496572300D-01 -3.69294189334994600D-02  2.26120005344658800D-18
 6  2 -7.07478594098300300D-02  3.64038852987362900D-03 -2.22902146202957200D-19 -4.23564168463824200D-03  1.26755026784505100D-03
 6  3  6.15745793347947400D-03 -7.42500820132451000D-03  3.45729580840039100D-19 -9.69890500575136500D-03  5.93867034758142200D-19
 6  4 -1.82662608356929700D-02  2.40339223979571100D-01  1.23703954496572300D-01 -3.69294189334994600D-02 -2.26120005344659500D-18
 6  5  7.07478594098300300D-02  3.64038852987362900D-03  2.22902146203577700D-19  4.23564168463824200D-03 -1.26755026784505100D-03
 6  6 -6.15745793347947400D-03  7.42500820132451000D-03  3.45729580839607500D-19 -9.69890500575136500D-03 -5.93867034758136000D-19
 6  7  1.30165471837308100D-02 -1.71730854869678100D-01 -1.42385369966832700D-01  1.12824091680199600D-01 -6.90825497679049100D-18
 6  8  7.37481112832423000D-02  2.98227182400487300D-02 -1.82605451225057400D-18  5.43775862796915600D-02  4.56074719817454700D-03
 6  9  7.31908365820944200D-03 -1.18798308563839800D-02  1.95021782281220000D-19 -1.70895425398298800D-02  1.04639811890962400D-18
 6 10 -1.30165471837308100D-02  1.71730854869678100D-01  1.42385369966832700D-01  1.12824091680199600D-01  6.90825497679058700D-18
 6 11 -7.37481112832423000D-02  2.98227182400487300D-02  1.82605451225124400D-18 -5.43775862796915600D-02 -4.56074719817454700D-03
 6 12 -7.31908365820944200D-03  1.18798308563839800D-02  1.95021782281400400D-19 -1.70895425398298800D-02 -1.04639811890972400D-18
 6 13 -1.04422635750012500D-01 -6.99491129315807000D-03 -1.62307039317904600D-02  9.93811158093939300D-19 -9.91637864489802000D-05
 6 14  1.04422635750012500D-01  6.99491129315807000D-03 -1.62307039317904600D-02 -9.93811158094104200D-19  9.91637864489802000D-05
 6 15 -9.09625143015775400D-02 -7.91291897801764100D-03  4.27281409489158900D-03 -2.61625764465311100D-19 -1.41152317361483900D-02
 6 16  9.09625143015775400D-02  7.91291897801764100D-03  4.27281409489158900D-03  2.61625764465293900D-19  1.41152317361483900D-02
 6 17 -7.77097455545816800D-02 -1.54172930662674200D-02 -1.88760012754571700D-03  1.15578355483378800D-19  1.11626627581797000D-02
 6 18  7.77097455545816800D-02  1.54172930662674200D-02 -1.88760012754571700D-03 -1.15578355483462600D-19 -1.11626627581797000D-02
 7  1 -1.35917933820675900D-02  1.97384529473514500D-01  1.51633497007561000D-01 -3.69021463976119000D-02  2.25953014740995400D-18
 7  2 -4.77218409397752000D-02 -1.71492640894193600D-03  1.05005488837109100D-19 -2.49692225023914500D-02 -2.03901686890008900D-04
 7  3 -1.82514126895178300D-03  2.02904295584190000D-03 -1.14625984675655800D-19 -5.40439570930079300D-03  3.30912866209025200D-19
 7  4 -1.35917933820675900D-02  1.97384529473514500D-01  1.51633497007561000D-01  3.69021463976119000D-02  2.25953014740995400D-18
 7  5 -4.77218409397752000D-02  1.71492640894193600D-03  1.05005488835699600D-19 -2.49692225023914500D-02 -2.03901686890008900D-04
 7  6 -1.82514126895178300D-03  2.02904295584190000D-03  1.14625984675968300D-19  5.40439570930079300D-03  3.30912866208989200D-19
 7  7  7.95479096888546500D-03 -1.52196651419137700D-01 -1.13944203104275800D-01 -1.39205415873459600D-01  8.52359183825623500D-18
 7  8 -1.22720407165817400D-01 -5.08217881081938600D-02  3.11183423149453500D-18 -3.29059769412184500D-02 -1.36086910485098000D-02
 7  9  2.94582056795758400D-03  1.06628704805522200D-02  1.17044835066947200D-18  6.43323343338855200D-03 -3.93908926907538400D-19
 7 10  7.95479096888546500D-03 -1.52196651419137700D-01 -1.13944203104275800D-01  1.39205415873459600D-01  8.52359183825626600D-18
 7 11 -1.22720407165817400D-01  5.08217881081938600D-02  3.11183423149633900D-18 -3.29059769412184500D-02 -1.36086910485098000D-02
 7 12  2.94582056795758400D-03  1.06628704805522200D-02 -1.17044835067005800D-18 -6.43323343338855200D-03 -3.93908926907478500D-19
 7 13  1.35769442683321900D-01  2.63173260756029500D-02  1.64784909286671600D-02 -1.00898323463258300D-18 -3.35448159332811700D-03
 7 14  1.35769442683321900D-01  2.63173260756029500D-02 -1.64784909286671600D-02 -1.00898323463243800D-18 -3.35448159332811700D-03
 7 15  1.34975327469143300D-01  2.00969087635764400D-02 -5.97340941856321800D-03  3.65753756397728200D-19  1.45376112726562100D-02
 7 16  1.34975327469143300D-01  2.00969087635764400D-02  5.97340941856321800D-03  3.65753756397766600D-19  1.45376112726562100D-02
 7 17 -1.18417324017479300D-01 -1.95226194215706800D-02 -8.63244158604213300D-03  5.28567140763437900D-19  1.08137339992749500D-02
 7 18 -1.18417324017479300D-01 -1.95226194215706800D-02  8.63244158604213300D-03  5.28567140763333700D-19  1.08137339992749500D-02
 8  1 -8.41996899003787400D-03  1.20455551018318600D-01  1.05614862147168800D-01 -7.62974930163405600D-02  4.67171973642645700D-18
 8  2 -1.79120736484743800D-01 -3.09671323627502700D-02  1.89612735255417500D-18 -6.91191822780646300D-02  7.29403995984255900D-03
 8  3  2.66218385877359200D-03 -9.95622381861607400D-03 -3.27484643439619500D-19 -1.25291026033837900D-02  7.67160932789794000D-19
 8  4  8.41996899003787400D-03 -1.20455551018318600D-01 -1.05614862147168800D-01 -7.62974930163405600D-02 -4.67171973642645300D-18
 8  5  1.79120736484743800D-01 -3.09671323627502700D-02 -1.89612735255407900D-18  6.91191822780646300D-02 -7.29403995984255900D-03
 8  6 -2.66218385877359200D-03  9.95622381861607400D-03 -3.27484643439620000D-19 -1.25291026033837900D-02 -7.67160932789833300D-19
 8  7  6.88169774373073500D-03 -1.71083552390218900D-01 -1.17349185690935300D-01  1.00839356249732000D-01 -6.17442581893899800D-18
 8  8 -6.79395624228821000D-02  2.69151517056315400D-02 -1.64802328964059700D-18 -3.05429295562550100D-02  7.48476913574425700D-03
 8  9 -2.01783029903220000D-03 -5.46693883671204000D-03 -6.71859254636398400D-19  7.97254044422210400D-03 -4.88161184205011000D-19
 8 10 -6.88169774373073500D-03  1.71083552390218900D-01  1.17349185690935300D-01  1.00839356249732000D-01  6.17442581893900800D-18
 8 11  6.79395624228821000D-02  2.69151517056315400D-02  1.64802328964036000D-18  3.05429295562550100D-02 -7.48476913574425700D-03
 8 12  2.01783029903220000D-03  5.46693883671204000D-03 -6.71859254636419700D-19  7.97254044422210400D-03  4.88161184205015600D-19
 8 13  1.22626199981292500D-01  3.12650153875080500D-02  1.15788551475088400D-02 -7.08976979181410900D-19 -4.90702823880637500D-03
 8 14 -1.22626199981292500D-01 -3.12650153875080500D-02  1.15788551475088400D-02  7.08976979181415700D-19  4.90702823880637500D-03
 8 15  1.75471612119256300D-01  3.47996602500598400D-02 -1.06837880541158400D-02  6.54171736698108300D-19  1.48988334278365100D-02
 8 16 -1.75471612119256300D-01 -3.47996602500598400D-02 -1.06837880541158400D-02 -6.54171736698079200D-19 -1.48988334278365100D-02
 8 17 -1.83243956406187800D-01 -4.45457205852484600D-02 -6.50840876937818900D-03  3.98511936612691000D-19  1.67163681739241600D-02
 8 18  1.83243956406187800D-01  4.45457205852484600D-02 -6.50840876937818900D-03 -3.98511936612689900D-19 -1.67163681739241600D-02
 9  1  2.90442287869672000D-03 -1.91373044409566700D-02 -3.72024796557565100D-02  1.98608014091973100D-01 -1.21608317988537100D-17
 9  2 -8.46256249869231500D-02  6.36765740453934200D-02 -3.89893685828125500D-18 -3.32619795257259000D-02  1.28920894012489600D-03
 9  3  4.20752459599424700D-04 -1.70996139972425700D-03 -6.14022013339818900D-20  4.04544835834758500D-03 -2.47704088184612500D-19
 9  4  2.90442287869672000D-03 -1.91373044409566700D-02 -3.72024796557565100D-02 -1.98608014091973100D-01 -1.21608317988537400D-17
 9  5 -8.46256249869231500D-02 -6.36765740453934200D-02 -3.89893685828173100D-18 -3.32619795257259000D-02  1.28920894012489600D-03
 9  6  4.20752459599424700D-04 -1.70996139972425700D-03  6.14022013339136700D-20 -4.04544835834758500D-03 -2.47704088184663300D-19
 9  7  2.46013354905397900D-03  1.64782957369223600D-02  8.47432637713110800D-03  1.79009618826738700D-01 -1.09608158305272900D-17
 9  8 -1.70010766394879300D-01  6.58246167026823500D-02 -4.03046219260147300D-18 -7.05273268534245500D-02  2.15727812322245900D-03
 9  9 -1.91621811573548500D-03 -2.41060007486984000D-04 -2.88007104335589200D-19 -4.08398027330073100D-03  2.50063409578452800D-19
 9 10  2.46013354905397900D-03  1.64782957369223600D-02  8.47432637713110800D-03 -1.79009618826738700D-01 -1.09608158305273200D-17
 9 11 -1.70010766394879300D-01 -6.58246167026823500D-02 -4.03046219260126500D-18 -7.05273268534245500D-02  2.15727812322245900D-03
 9 12 -1.91621811573548500D-03 -2.41060007486984000D-04  2.88007104335489400D-19  4.08398027330073100D-03  2.50063409578479600D-19
 9 13 -1.72572964395638300D-01 -4.86651462804934000D-02 -1.32044563035137900D-02  8.08513054402671900D-19  2.85202114201525200D-05
 9 14 -1.72572964395638300D-01 -4.86651462804934000D-02  1.32044563035137900D-02  8.08513054402620500D-19  2.85202114201525200D-05
 9 15  1.07597394763988400D-01  3.03205638188886300D-02  1.26344376056006700D-03 -7.73610628439633400D-20  8.25920666679482200D-03
 9 16  1.07597394763988400D-01  3.03205638188886300D-02 -1.26344376056006700D-03 -7.73610628439463000D-20  8.25920666679482200D-03
 9 17 -1.69454571014696600D-01 -4.24002935497597800D-02 -4.11822538785043700D-03  2.52160248821729900D-19  1.29861468579104200D-02
 9 18 -1.69454571014696600D-01 -4.24002935497597800D-02  4.11822538785043700D-03  2.52160248821697000D-19  1.29861468579104200D-02
10  1  4.35336044619809300D-03  7.85092984401907600D-03 -2.24588410418655500D-02  9.89345187641576700D-02 -6.05779201454732800D-18
10  2  2.77618094268314300D-01  3.24776067506831700D-02 -1.98861417919125700D-18  9.64364835310537900D-02 -2.21636809394696600D-03
10  3 -1.23513688354291500D-03  3.45150497748999700D-03  6.93756770633074300D-20  1.84741209541157300D-02 -1.13117629508463600D-18
10  4  4.35336044619809300D-03  7.85092984401907600D-03 -2.24588410418655500D-02 -9.89345187641576700D-02 -6.05779201454734000D-18
10  5  2.77618094268314300D-01 -3.24776067506831700D-02 -1.98861417919185800D-18  9.64364835310537900D-02 -2.21636809394696600D-03
10  6 -1.23513688354291500D-03  3.45150497748999700D-03 -6.93756770631029000D-20 -1.84741209541157300D-02 -1.13117629508468800D-18
10  7  1.49574743115721700D-04  1.91368408073329400D-02  2.60033890917186700D-03 -1.95815980682631500D-01  1.19898747061955000D-17
10  8 -2.11716774854913200D-01 -7.04302846936922000D-02  4.31246870687088900D-18 -7.18970688816157300D-02 -3.84808789839955800D-03
10  9  6.62185686994711400D-04  3.18590221140483600D-03  3.18888433642472600D-19  5.93080167784790600D-03 -3.63144870897656800D-19
10 10  1.49574743115721700D-04  1.91368408073329400D-02  2.60033890917186700D-03  1.95815980682631500D-01  1.19898747061955400D-17
10 11 -2.11716774854913200D-01  7.04302846936922000D-02  4.31246870687055000D-18 -7.18970688816157300D-02 -3.84808789839955800D-03
10 12  6.62185686994711400D-04  3.18590221140483600D-03 -3.18888433642802500D-19 -5.93080167784790600D-03 -3.63144870897639300D-19
10 13 -5.91552840508947900D-02 -2.32294249171490700D-02 -2.97030034977968000D-03  1.81872434055002700D-19  7.88402145374599400D-03
10 14 -5.91552840508947900D-02 -2.32294249171490700D-02  2.97030034977968000D-03  1.81872434055099900D-19  7.88402145374599400D-03
10 15 -1.91744810118120000D-01 -7.20302336906251900D-02  8.41420746857093200D-03 -5.15204596419597600D-19 -9.90638187563271100D-03
10 16 -1.91744810118120000D-01 -7.20302336906251900D-02 -8.41420746857093200D-03 -5.15204596419568700D-19 -9.90638187563271100D-03
10 17 -7.87395272387765900D-02 -2.98577612764978100D-02 -6.79597183150001600D-03  4.16119514262633300D-19  1.86570631518767900D-03
10 18 -7.87395272387765900D-02 -2.98577612764978100D-02  6.79597183150001600D-03  4.16119514262648500D-19  1.86570631518767900D-03
11  1 -6.41640275476788700D-04  1.97845561256606800D-02  3.71395470036931400D-02  3.00548984295586000D-01 -1.84027097901617700D-17
11  2 -1.86466491641079300D-02  1.16062702989864300D-01 -7.10655617615954300D-18  4.97860576617835500D-03 -8.28308801697337200D-03
11  3 -1.13648884167052400D-03  9.41957685864396400D-03  5.05283720318809300D-19  8.48138473329213300D-03 -5.19317881680073500D-19
11  4  6.41640275476788700D-04 -1.97845561256606800D-02 -3.71395470036931400D-02  3.00548984295586000D-01  1.84027097901618800D-17
11  5  1.86466491641079300D-02  1.16062702989864300D-01  7.10655617615917900D-18 -4.97860576617835500D-03  8.28308801697337200D-03
11  6  1.13648884167052400D-03 -9.41957685864396400D-03  5.05283720318995300D-19  8.48138473329213300D-03  5.19317881680092000D-19
11  7 -1.47678591169147800D-03  3.63193058574563500D-02  5.32459013585669900D-02 -3.99567138462716300D-03  2.44656228270019600D-19
11  8 -1.74609355231267200D-01  5.11500609366342300D-02 -3.13193448107022100D-18 -5.13121336996259500D-02 -1.21623786884402100D-02
11  9 -5.01678394010735700D-04  1.26640570824509800D-02  8.24442770857310900D-19  1.37419190106141400D-02 -8.41422066705519900D-19
11 10  1.47678591169147800D-03 -3.63193058574563500D-02 -5.32459013585669900D-02 -3.99567138462716300D-03 -2.44656228270048300D-19
11 11  1.74609355231267200D-01  5.11500609366342300D-02  3.13193448107018400D-18  5.13121336996259500D-02  1.21623786884402100D-02
11 12  5.01678394010735700D-04 -1.26640570824509800D-02  8.24442770857251900D-19  1.37419190106141400D-02  8.41422066705539300D-19
11 13 -2.49581048253721100D-01 -9.37966224403508400D-02 -1.57032308761153300D-02  9.61513815321580000D-19  1.07504504174222900D-03