! EXAM41.
!
! H2O/6-311G* frozen core conventional MP4-SDTQ numerical gradient calculation.
!
! At the non-displaced geometry:
!
! E(RHF)       =       -76.0318863391
!
! E(D,2)       =        -0.2074131499
! E(MP2)       =       -76.2392994890
!
! E(D,3)       =        -0.0037247941
! E(D,2+3)     =        -0.2111379440
! E(MP3)       =       -76.2430242831
!
! E(S,4)       =        -0.0013074533
! E(D,4)       =        -0.0038157442
! E(D,2+3+4)   =        -0.2149536881
! E(T,4)       =        -0.0041823260
! E(R+Q,4)     =         0.0013751423
! E(SDTQ,4)    =        -0.0079303811
! E(SDTQ,2+3+4)=        -0.2190683251
! E(MP4-SDTQ)  =       -76.2509546642
!
!                       ----------------------
!                       GRADIENT OF THE ENERGY
!                       ----------------------
!
!    ATOM                 E'X               E'Y               E'Z 
! 1 OXYGEN           0.000000000       0.000000000      -0.002403779
! 2 HYDROGEN         0.000000000       0.003547456       0.001201889
! 3 HYDROGEN         0.000000000      -0.003547456       0.001201889
!
!                   MAXIMUM GRADIENT =    0.003547456
!                       RMS GRADIENT =    0.001938961
!
 $CONTRL SCFTYP=RHF MPLEVL=4 RUNTYP=NUMGRAD NUMDER=.T. $END
 $SYSTEM TIMLIM=10 MEMORY=500000 $END
 $BASIS  GBASIS=N311 NGAUSS=6 NDFUNC=1 $END
 $GUESS  GUESS=HUCKEL $END
 $MP4 SDTQ=.T. $END
 $DATA
Water at arbitrary geometry
Cnv      2

OXYGEN     8.0
HYDROGEN   1.0   0.0     0.7572157    0.5865358
 $END
