! EXAM50.
!
! This is a DSD-PBEP86/cc-pVTZ energy run on silacyclobutane,  
! using canonical MP2 method=1 code.
!
! DFT-D DISPERSION CORRECTION = -0.009578108625
!
! FINAL SCF ENERGY IS -407.7900394063 AFTER  10 ITERATIONS - THIS INCORPORATES 
! DFT-D CORRECTION BUT NOT YET INCLUDES PT2-LIKE TERM
!
! DFT EXCHANGE + CORRELATION ENERGY IS      -12.2076694667
! INTEGRATED TOTAL ELECTRON NUMBER  IS       40.0000136816
!
! RESULTS OF GRIMME'S MP2-LIKE CORRECTION ARE
!     E(0)        =      -407.7900394063
!     E(1)        =         0.0
!     E(2,S)      =        -0.5684516759
!     E(2,T)      =        -0.1566241640
!     E(2)        =        -0.7250758399
!     E(DFT+C*PT2)=      -408.1304748355
!
! Cpu time of canonical MP2 method=1 stage = 127.84 seconds
!
 $CONTRL SCFTYP=RHF DFTTYP=D-PBEP86 RUNTYP=ENERGY UNITS=ANGS D5=.T. $END
 $CONTRL MPLEVL=2 DFTD=.T. $END
 $SYSTEM TIMLIM=10 MEMORY=5000000 $END
 $P2P P2P=.T. DLB=.T. XDLB=.T. $END
 $GUESS  GUESS=HUCKEL $END
! Two groups below defines updated version of DSD-PBEP86 
! as described by Sebastian Kozuch and Jan M. L. Martin 
! in Phys. Chem. Chem. Phys., 2011, 13, 20104–2010.
! D-PBEP86 which is built into Firefly is the older version 
! of this functional WHICH uses DFT-D version 2 and slightly 
! different parameterization
 $DFT 
   HFX(1)=0.70 CPT2=0.57
   SCS(1)=0.9298245614035088,0.4385964912280702 
 $END
 $DFTD VERSN=4 S6=0.418 RS6=0.0 S18=0.25 RS18=5.65 ALP=14.0 $END
 $SCF DIRSCF=1 $END
 $MP2 METHOD=1 RI=.F. $END
 $RIMP2 AUXBAS=def2-TZVPP/C $END
 $AUXBAS
 H    def2-TZVPP/C
   S   1
      9.33521609      1.00000000E+00
   S   1
      1.86110704      1.00000000E+00
   S   1
      0.59512466      1.00000000E+00
   S   1
      0.26448099      1.00000000E+00
   P   1
      2.45249821      1.00000000E+00
   P   1
      1.35403830      1.00000000E+00
   P   1
      0.59522394      1.00000000E+00
   D   1
      1.58163766      1.00000000E+00
   D   1
      0.62743960      1.00000000E+00
   F   1
      1.87145103      1.00000000E+00

 C    def2-TZVPP/C
   S   1
    281.47693316      4.89117480E-01
   S   1
     59.86260691      1.52506644E+00
   S   1
     23.28284492      5.32780710E-01
   S   1
      9.43365439      1.00000000E+00
   S   1
      3.31157947      1.00000000E+00
   S   1
      1.07438579      1.00000000E+00
   S   1
      0.40591700      1.00000000E+00
   S   1
      0.20682782      1.00000000E+00
   P   1
     24.79432276      1.27505829E+00
   P   1
      6.37908678      1.30659648E+00
   P   1
      2.73619827      1.00000000E+00
   P   1
      1.13180785      1.00000000E+00
   P   1
      0.49171280      1.00000000E+00
   P   1
      0.23760591      1.00000000E+00
   D   2
      9.06768796      4.70111190E-01
      3.41167689      1.34112442E+00
   D   1
      1.41501615      1.00000000E+00
   D   1
      0.58793486      1.00000000E+00
   D   1
      0.25753087      1.00000000E+00
   F   1
      2.38701735      7.90936130E-01
   F   1
      1.16067992      1.39179984E+00
   F   1
      0.55289817      1.05324690E-01
   G   1
      1.22884707      1.00000000E+00

 Si   def2-TZVPP/C
   S   1
    252.95316000      1.51090391E+00
   S   1
     93.61980100     -1.19969110E-01
   S   1
     34.90955700     -5.00475790E-01
   S   1
     11.18095300      1.00000000E+00
   S   1
      6.52098190      1.00000000E+00
   S   1
      3.38219430      1.00000000E+00
   S   1
      1.32509420      1.00000000E+00
   S   1
      0.51925936      1.00000000E+00
   S   1
      0.24523251      1.00000000E+00
   S   1
      0.12935530      1.00000000E+00
   S   1
      0.06009824      1.00000000E+00
   P   1
     81.94488700     -6.45429290E-01
   P   1
      9.83495350      1.54270173E+00
   P   1
      4.83763590      3.39313770E-01
   P   1
      1.77864770     -9.93111500E-01
   P   1
      0.69339970      1.00000000E+00
   P   1
      0.40788218      1.00000000E+00
   P   1
      0.15632603      1.51139817E+00
   P   1
      0.08263368      4.57700000E-05
   D   1
     47.16636000      7.87202000E-01
   D   1
     15.00007800      1.80566812E+00
   D   1
      3.96467760      7.07265470E-01
   D   1
      2.33216330     -3.06843350E-01
   D   1
      0.65273451      1.00000000E+00
   D   1
      0.36848652      1.00000000E+00
   D   1
      0.15916560      1.00000000E+00
   F   1
      7.94019750      1.00000000E+00
   F   1
      3.54899983      1.00000000E+00
   F   1
      1.30000606      1.00000000E+00
   F   1
      0.61563942      1.00000000E+00
   F   1
      0.29155068      1.00000000E+00
   G   1
      1.84433410      1.00000000E+00
   G   1
      0.51224369      1.00000000E+00

 $END
 $DATA
MP2-fc/cc-pVTZ//RHF/3-21G* Silacyclobutane
CS

SILICON    14.0    -0.081722       1.055710
 S  13
  1        254900.0000         0.6251010000E-04
  2        38190.00000         0.4855530000E-03
  3        8690.000000         0.2545160000E-02
  4        2462.000000         0.1058660000E-01
  5        804.8000000         0.3687870000E-01
  6        291.3000000         0.1074790000
  7        113.6000000         0.2479360000
  8        46.75000000         0.3909270000
  9        19.82000000         0.3020260000
 10        7.708000000         0.5592360000E-01
 11        3.340000000        -0.4024060000E-02
 12        1.402000000         0.2580300000E-02
 13       0.2070000000         0.6079300000E-03
 S  13
  1        254900.0000        -0.1663700000E-04
  2        38190.00000        -0.1293100000E-03
  3        8690.000000        -0.6788280000E-03
  4        2462.000000        -0.2841170000E-02
  5        804.8000000        -0.1005510000E-01
  6        291.3000000        -0.3057740000E-01
  7        113.6000000        -0.7772560000E-01
  8        46.75000000        -0.1542360000
  9        19.82000000        -0.1803680000
 10        7.708000000         0.7982180000E-01
 11        3.340000000         0.5474410000
 12        1.402000000         0.4801190000
 13       0.2070000000        -0.1069960000E-01
 S  13
  1        254900.0000         0.4262570000E-05
  2        38190.00000         0.3310620000E-04
  3        8690.000000         0.1740150000E-03
  4        2462.000000         0.7275740000E-03
  5        804.8000000         0.2583330000E-02
  6        291.3000000         0.7863540000E-02
  7        113.6000000         0.2021550000E-01
  8        46.75000000         0.4073200000E-01
  9        19.82000000         0.4993580000E-01
 10        7.708000000        -0.2493960000E-01
 11        3.340000000        -0.1903500000
 12        1.402000000        -0.3183500000
 13       0.2070000000         0.6811800000
 S   1
  1       0.4387000000          1.000000000
 S   1
  1       0.7944000000E-01      1.000000000
 P   7
  1        481.5000000         0.1920450000E-02
  2        113.9000000         0.1535520000E-01
  3        36.23000000         0.7139910000E-01
  4        13.34000000         0.2130520000
  5        5.252000000         0.3903540000
  6        2.120000000         0.3937210000
  7       0.2528000000         0.3956300000E-02
 P   7
  1        481.5000000        -0.4052200000E-03
  2        113.9000000        -0.3358960000E-02
  3        36.23000000        -0.1528600000E-01
  4        13.34000000        -0.4892180000E-01
  5        5.252000000        -0.8550080000E-01
  6        2.120000000        -0.1121370000
  7       0.2528000000         0.5519190000
 P   1
  1       0.8561000000          1.000000000
 P   1
  1       0.7889000000E-01      1.000000000
 D   1
  1       0.1590000000          1.000000000
 D   1
  1       0.4810000000          1.000000000
 F   1
  1       0.3360000000          1.000000000

CARBON      6.0    -0.081722      -0.395331       1.217568
 S   8
  1        8236.000000         0.5310000000E-03
  2        1235.000000         0.4108000000E-02
  3        280.8000000         0.2108700000E-01
  4        79.27000000         0.8185300000E-01
  5        25.59000000         0.2348170000
  6        8.997000000         0.4344010000
  7        3.319000000         0.3461290000
  8       0.3643000000        -0.8983000000E-02
 S   8
  1        8236.000000        -0.1130000000E-03
  2        1235.000000        -0.8780000000E-03
  3        280.8000000        -0.4540000000E-02
  4        79.27000000        -0.1813300000E-01
  5        25.59000000        -0.5576000000E-01
  6        8.997000000        -0.1268950000
  7        3.319000000        -0.1703520000
  8       0.3643000000         0.5986840000
 S   1
  1       0.9059000000          1.000000000
 S   1
  1       0.1285000000          1.000000000
 P   3
  1        18.71000000         0.1403100000E-01
  2        4.133000000         0.8686600000E-01
  3        1.200000000         0.2902160000
 P   1
  1       0.3827000000          1.000000000
 P   1
  1       0.1209000000          1.000000000
 D   1
  1        1.097000000          1.000000000
 D   1
  1       0.3180000000          1.000000000
 F   1
  1       0.7610000000          1.000000000

CARBON      6.0     0.319935      -1.329102
 S   8
  1        8236.000000         0.5310000000E-03
  2        1235.000000         0.4108000000E-02
  3        280.8000000         0.2108700000E-01
  4        79.27000000         0.8185300000E-01
  5        25.59000000         0.2348170000
  6        8.997000000         0.4344010000
  7        3.319000000         0.3461290000
  8       0.3643000000        -0.8983000000E-02
 S   8
  1        8236.000000        -0.1130000000E-03
  2        1235.000000        -0.8780000000E-03
  3        280.8000000        -0.4540000000E-02
  4        79.27000000        -0.1813300000E-01
  5        25.59000000        -0.5576000000E-01
  6        8.997000000        -0.1268950000
  7        3.319000000        -0.1703520000
  8       0.3643000000         0.5986840000
 S   1
  1       0.9059000000          1.000000000
 S   1
  1       0.1285000000          1.000000000
 P   3
  1        18.71000000         0.1403100000E-01
  2        4.133000000         0.8686600000E-01
  3        1.200000000         0.2902160000
 P   1
  1       0.3827000000          1.000000000
 P   1
  1       0.1209000000          1.000000000
 D   1
  1        1.097000000          1.000000000
 D   1
  1       0.3180000000          1.000000000
 F   1
  1       0.7610000000          1.000000000

HYDROGEN    1.0    -1.222554       1.998369
 S   3
  1        33.87000000         0.6068000000E-02
  2        5.095000000         0.4530800000E-01
  3        1.159000000         0.2028220000
 S   1
  1       0.3258000000          1.000000000
 S   1
  1       0.1027000000          1.000000000
 P   1
  1        1.407000000          1.000000000
 P   1
  1       0.3880000000          1.000000000
 D   1
  1        1.057000000          1.000000000

HYDROGEN    1.0     1.168317       1.848237
 S   3
  1        33.87000000         0.6068000000E-02
  2        5.095000000         0.4530800000E-01
  3        1.159000000         0.2028220000
 S   1
  1       0.3258000000          1.000000000
 S   1
  1       0.1027000000          1.000000000
 P   1
  1        1.407000000          1.000000000
 P   1
  1       0.3880000000          1.000000000
 D   1
  1        1.057000000          1.000000000

HYDROGEN    1.0     0.604981      -0.419640       2.052727
 S   3
  1        33.87000000         0.6068000000E-02
  2        5.095000000         0.4530800000E-01
  3        1.159000000         0.2028220000
 S   1
  1       0.3258000000          1.000000000
 S   1
  1       0.1027000000          1.000000000
 P   1
  1        1.407000000          1.000000000
 P   1
  1       0.3880000000          1.000000000
 D   1
  1        1.057000000          1.000000000

HYDROGEN    1.0    -1.077445      -0.641554       1.572232
 S   3
  1        33.87000000         0.6068000000E-02
  2        5.095000000         0.4530800000E-01
  3        1.159000000         0.2028220000
 S   1
  1       0.3258000000          1.000000000
 S   1
  1       0.1027000000          1.000000000
 P   1
  1        1.407000000          1.000000000
 P   1
  1       0.3880000000          1.000000000
 D   1
  1        1.057000000          1.000000000

HYDROGEN    1.0     1.388834      -1.500162
 S   3
  1        33.87000000         0.6068000000E-02
  2        5.095000000         0.4530800000E-01
  3        1.159000000         0.2028220000
 S   1
  1       0.3258000000          1.000000000
 S   1
  1       0.1027000000          1.000000000
 P   1
  1        1.407000000          1.000000000
 P   1
  1       0.3880000000          1.000000000
 D   1
  1        1.057000000          1.000000000

HYDROGEN    1.0    -0.184517      -2.285408
 S   3
  1        33.87000000         0.6068000000E-02
  2        5.095000000         0.4530800000E-01
  3        1.159000000         0.2028220000
 S   1
  1       0.3258000000          1.000000000
 S   1
  1       0.1027000000          1.000000000
 P   1
  1        1.407000000          1.000000000
 P   1
  1       0.3880000000          1.000000000
 D   1
  1        1.057000000          1.000000000

 $END
