! EXAM67.                                                  
!
! Water in PCM water... closed-shell DFT/PBE0 geometry optimization
! Default integration grid is used for DFT          
!
! FINAL E = -75.2494708150,  7 ITERS, RMS GRAD = 0.0493934
! FINAL E = -75.2483370019,  6 ITERS, RMS GRAD = 0.0426533
! FINAL E = -75.2590892333,  6 ITERS, RMS GRAD = 0.0078875
! FINAL E = -75.2594236565,  6 ITERS, RMS GRAD = 0.0022026
! FINAL E = -75.2594544450,  6 ITERS, RMS GRAD = 0.0002793
! FINAL E = -75.2594546565,  6 ITERS, RMS GRAD = 0.0003922
! FINAL E = -75.2594552102,  6 ITERS, RMS GRAD = 0.0000200
!                                                          
! The final geometry at nserch = 6 is almost symmetric:
! O   
! H        1   1.0158606
! H        1   1.0158146    2    97.3950373
!                                                          
!      ----------------------------------------------
!      ------   RESULTS OF D-PCM CALCULATION  -------
!      ----------------------------------------------
!
! FREE ENERGY IN SOLVENT       =      -75.2594552102 A.U.
! INTERNAL ENERGY IN SOLVENT   =      -75.2539426092 A.U.
! DELTA INTERNAL ENERGY        =        0.0000000000 A.U.
! ELECTROSTATIC INTERACTION    =       -0.0055126010 A.U.
! PIEROTTI CAVITATION ENERGY   =        0.0000000000 A.U.
! DISPERSION FREE ENERGY       =        0.0000000000 A.U.
! REPULSION FREE ENERGY        =        0.0000000000 A.U.
! TOTAL INTERACTION            =       -0.0055126010 A.U.
! TOTAL FREE ENERGY IN SOLVENT =      -75.2594552102 A.U.
!                                                          
 $contrl scftyp=rhf runtyp=optimize coord=zmt dfttyp=pbe0 $end         
 $system memory=8000000 $end                               
 $basis  gbasis=sto ngauss=3 $end                          
 $guess  guess=huckel $end                                 
 $pcm    solvnt=water $end                                 
 $data                                                     
a water molecule solvated by PCM water                     
Cnv 2                                                      
                                                           
O                                                          
H 1 rOH                                                    
H 1 rOH 2 aHOH                                             
                                                           
rOH=0.95                                                   
aHOH=104.5                                                 
 $end                                                      
