! EXAM69.
!
! 1-A-1 CH2 SA(2)-MCSCF methylene ground state geometry optimization.
! The two configuration ansatz is the same as used in the fourth example.
! This example uses GUGA code as CISTEP for MCSCF
!
! Note, high computation accuracy is enforced 
!
!------------------------------------------------------------------------------
!
! At the initial geometry:
!
! SA(2)-MCSCF STATE #    1  ENERGY =     -38.879980454
! SA(2)-MCSCF STATE #    2  ENERGY =     -38.682741068
!
! Geometry and energy gradient of the ground state in internals:
!
!                          - - ATOMS - -            COORDINATE        GRADIENT
! NO.     TYPE      I    J    K    L    M    N       (ANG,DEG)     (H/B,H/RAD)
!------------------------------------------------------------------------------
!     1 STRETCH     1    2                           1.0900000      -0.0055696
!     2 STRETCH     1    3                           1.0900000      -0.0055696
!     3 BEND        2    1    3                     99.0000000      -0.0164352
!------------------------------------------------------------------------------
!
! After 3 steps at the optimized geometry:
!
! SA(2)-MCSCF STATE #    1  ENERGY =     -38.880742514
! SA(2)-MCSCF STATE #    2  ENERGY =     -38.697964119
!
! Geometry and energy gradient of the ground state in internals:
!
!                          - - ATOMS - -            COORDINATE        GRADIENT
! NO.     TYPE      I    J    K    L    M    N       (ANG,DEG)     (H/B,H/RAD)
! ------------------------------------------------------------------------------
!     1 STRETCH     1    2                           1.0944626      -0.0000048
!     2 STRETCH     1    3                           1.0944626      -0.0000048
!     3 BEND        2    1    3                    104.0583183      -0.0000066
!------------------------------------------------------------------------------
! 
 $CONTRL 
   SCFTYP=MCSCF RUNTYP=OPTIMIZE NZVAR=3 COORD=ZMT INTTYP=HONDO ICUT=12
 $END
 $SYSTEM TIMLIM=15 MEMORY=300000 $END
 $BASIS  GBASIS=N31 NGAUSS=6 ndfunc=1 $END
 $GUESS  GUESS=MOREAD NORB=19 $END
!
! Note, high computation accuracy is enforced throughout 
! 
 $trans dirtrf=.t. mptran=2 mode=0 cuttrf=1.0d-13 $end
 $gugem pack2=1 cutoff=1d-12 $end
 $gugdm2 wstate(1)=1,1 cutoff=1d-12 $end 
 $gugdia nstate=2 itermx=1000 cvgtol=1d-7 $end
 $DRT  GROUP=C2V ISTSYM=1 FORS=.TRUE. NMCC=3 NDOC=1 NVAL=1 $END
 $MCSCF cistep=guga istate=1 acurcy=1.0d-7 npflg(9)=1 $END
 $ZMAT IZMAT(1)=1,1,2,   1,1,3,   2,2,1,3  $END
 $DATA
Methylene...1-A-1 state...MCSCF/6-31G*
Cnv  2

C
H 1 rCH
H 1 rCH 2 aHOH

rCH=1.09
aHOH=99.0
 $END
--- RHF ORBITALS --- GENERATED AT 22:25:18 16-SEP-2016    
Methylene...1-A-1 state...RHF/6-31G*
E(RHF)=      -38.8717774327, E(NUC)=    6.1450307920,    9 ITERS
 $VEC
 1  1 9.95968684E-01 2.52585930E-02 0.00000000E+00 0.00000000E+00 2.66832404E-03
 1  2-9.61366585E-03 0.00000000E+00 0.00000000E+00-3.04094870E-03-1.47483826E-03
 1  3-2.40819107E-03-1.32104568E-03 0.00000000E+00 0.00000000E+00 0.00000000E+00
 1  4-3.00116722E-04 3.05838263E-03-3.00116722E-04 3.05838263E-03
 2  1-1.87728192E-01 3.77604194E-01 0.00000000E+00 0.00000000E+00 1.56018106E-01
 2  2 3.62297302E-01 0.00000000E+00 0.00000000E+00 5.57949172E-02 1.61801913E-02
 2  3-2.00703129E-02 1.74288885E-02 0.00000000E+00 0.00000000E+00 0.00000000E+00
 2  4 1.86866498E-01 6.63289712E-02 1.86866498E-01 6.63289712E-02
 3  1 0.00000000E+00 0.00000000E+00 4.49793324E-01 0.00000000E+00 0.00000000E+00
 3  2 0.00000000E+00 1.77203157E-01 0.00000000E+00 0.00000000E+00 0.00000000E+00
 3  3 0.00000000E+00 0.00000000E+00 0.00000000E+00 5.54211959E-02 0.00000000E+00
 3  4-2.47692686E-01-2.40557474E-01 2.47692686E-01 2.40557474E-01
 4  1 1.05701742E-01-2.14925356E-01 0.00000000E+00 0.00000000E+00 4.87639187E-01
 4  2-4.70150269E-01 0.00000000E+00 0.00000000E+00 3.68798351E-01 2.85956162E-03
 4  3-1.19664897E-02 3.86820630E-02 0.00000000E+00 0.00000000E+00 0.00000000E+00
 4  4 1.11992006E-01 1.24284337E-01 1.11992006E-01 1.24284337E-01
 5  1 0.00000000E+00 0.00000000E+00 0.00000000E+00-4.32455468E-01 0.00000000E+00
 5  2 0.00000000E+00 0.00000000E+00-6.87971829E-01 0.00000000E+00 0.00000000E+00
 5  3 0.00000000E+00 0.00000000E+00 0.00000000E+00 0.00000000E+00-2.55666533E-02
 5  4 0.00000000E+00 0.00000000E+00 0.00000000E+00 0.00000000E+00
 6  1 1.15092721E-01-1.22800549E-01 0.00000000E+00 0.00000000E+00-2.42594301E-01
 6  2-2.00451659E+00 0.00000000E+00 0.00000000E+00-9.95240363E-01 9.48625686E-03
 6  3 1.54767393E-02-9.07258478E-03 0.00000000E+00 0.00000000E+00 0.00000000E+00
 6  4 1.89325690E-03 1.54369899E+00 1.89325690E-03 1.54369899E+00
 7  1 0.00000000E+00 0.00000000E+00-3.64807094E-01 0.00000000E+00 0.00000000E+00
 7  2 0.00000000E+00-1.29773190E+00 0.00000000E+00 0.00000000E+00 0.00000000E+00
 7  3 0.00000000E+00 0.00000000E+00 0.00000000E+00-3.77634989E-03 0.00000000E+00
 7  4-5.60130577E-02-1.55552951E+00 5.60130577E-02 1.55552951E+00
 8  1 0.00000000E+00 0.00000000E+00-6.84348086E-01 0.00000000E+00 0.00000000E+00
 8  2 0.00000000E+00 1.28401783E+00 0.00000000E+00 0.00000000E+00 0.00000000E+00
 8  3 0.00000000E+00 0.00000000E+00 0.00000000E+00-1.08550672E-01 0.00000000E+00
 8  4 4.42921359E-01 1.60559989E-02-4.42921359E-01-1.60559989E-02
 9  1 4.53137853E-02-2.61247895E-01 0.00000000E+00 0.00000000E+00 9.56909263E-01
 9  2-2.34323033E-01 0.00000000E+00 0.00000000E+00-1.35983759E+00-5.11294148E-03
 9  3-7.59176153E-02-7.61970402E-03 0.00000000E+00 0.00000000E+00 0.00000000E+00
 9  4 1.99768492E-01 2.74033007E-01 1.99768492E-01 2.74033007E-01
10  1 0.00000000E+00 0.00000000E+00 0.00000000E+00-1.13689583E+00 0.00000000E+00
10  2 0.00000000E+00 0.00000000E+00 1.00366280E+00 0.00000000E+00 0.00000000E+00
10  3 0.00000000E+00 0.00000000E+00 0.00000000E+00 0.00000000E+00-1.94054109E-02
10  4 0.00000000E+00 0.00000000E+00 0.00000000E+00 0.00000000E+00
11  1-5.76468331E-02-1.35058271E+00 0.00000000E+00 0.00000000E+00 6.08816851E-02
11  2 3.06657061E+00 0.00000000E+00 0.00000000E+00 9.72847500E-01-2.47433160E-01
11  3 1.04755247E-02-1.35088451E-01 0.00000000E+00 0.00000000E+00 0.00000000E+00
11  4-5.08364976E-01-7.80067313E-01-5.08364976E-01-7.80067313E-01
12  1 0.00000000E+00 0.00000000E+00-9.12434588E-01 0.00000000E+00 0.00000000E+00
12  2 0.00000000E+00 1.20024582E+00 0.00000000E+00 0.00000000E+00 0.00000000E+00
12  3 0.00000000E+00 0.00000000E+00 0.00000000E+00 1.85901586E-01 0.00000000E+00
12  4-6.98248695E-01 1.33059334E+00 6.98248695E-01-1.33059334E+00
13  1-3.74767275E-02 1.16049528E+00 0.00000000E+00 0.00000000E+00 5.87578078E-01
13  2-2.30093728E+00 0.00000000E+00 0.00000000E+00-8.01360939E-01-6.11458446E-02
13  3 2.00988995E-01 5.11802751E-02 0.00000000E+00 0.00000000E+00 0.00000000E+00
13  4-7.04453712E-01 1.25876686E+00-7.04453712E-01 1.25876686E+00
14  1-8.06970858E-04-1.86330498E-02 0.00000000E+00 0.00000000E+00 4.47679160E-02
14  2 3.39138365E-02 0.00000000E+00 0.00000000E+00 1.32751097E-02 7.03219442E-01
14  3 2.69613136E-01-9.63932069E-01 0.00000000E+00 0.00000000E+00 0.00000000E+00
14  4-2.75097495E-02-2.42930119E-04-2.75097495E-02-2.42930119E-04
15  1 0.00000000E+00 0.00000000E+00 0.00000000E+00 0.00000000E+00 0.00000000E+00
15  2 0.00000000E+00 0.00000000E+00 0.00000000E+00 0.00000000E+00 0.00000000E+00
15  3 0.00000000E+00 0.00000000E+00 1.00000000E+00 0.00000000E+00 0.00000000E+00
15  4 0.00000000E+00 0.00000000E+00 0.00000000E+00 0.00000000E+00
16  1 0.00000000E+00 0.00000000E+00 0.00000000E+00-3.31354426E-02 0.00000000E+00
16  2 0.00000000E+00 0.00000000E+00 1.88832480E-03 0.00000000E+00 0.00000000E+00
16  3 0.00000000E+00 0.00000000E+00 0.00000000E+00 0.00000000E+00 9.99484755E-01
16  4 0.00000000E+00 0.00000000E+00 0.00000000E+00 0.00000000E+00
17  1 5.22959112E-02 1.84756226E-01 0.00000000E+00 0.00000000E+00-5.50000334E-02
17  2-9.49638733E-01 0.00000000E+00 0.00000000E+00-5.05088247E-01-7.10888684E-01
17  3 1.05135268E+00-2.35858790E-01 0.00000000E+00 0.00000000E+00 0.00000000E+00
17  4 5.39890628E-01 2.12589947E-01 5.39890628E-01 2.12589947E-01
18  1 0.00000000E+00 0.00000000E+00-1.35839310E-01 0.00000000E+00 0.00000000E+00
18  2 0.00000000E+00-3.36957620E-01 0.00000000E+00 0.00000000E+00 0.00000000E+00
18  3 0.00000000E+00 0.00000000E+00 0.00000000E+00-1.13910065E+00 0.00000000E+00
18  4-6.75689866E-01 1.31599700E-01 6.75689866E-01-1.31599700E-01
19  1 4.55002390E-01-3.12398349E+00 0.00000000E+00 0.00000000E+00 9.43518446E-02
19  2-1.49956694E+00 0.00000000E+00 0.00000000E+00-3.11695981E-01 1.82332901E+00
19  3 1.78973382E+00 1.81835950E+00 0.00000000E+00 0.00000000E+00 0.00000000E+00
19  4-1.70632006E-01 4.80996914E-01-1.70632006E-01 4.80996914E-01
 $END
