! EXAM52.
!
! This is a PBE0-NL/cc-pVTZ energy run on silacyclobutane  
! using default parameterization of NL part. 
! NL part is computed by a non-self consistent manner.
!
! FINAL ENERGY IS     -408.3830384975 AFTER  10 ITERATIONS
! DFT EXCHANGE + CORRELATION ENERGY IS      -30.2553595437
! INTEGRATED TOTAL ELECTRON NUMBER  IS       40.0000127878
!
! With DFT-NL correction:
!
! E(NL)     =        0.129409271870582400
! E(DFT-NL) =     -408.253629225661800000
!
 $CONTRL SCFTYP=RHF DFTTYP=PBE0 DFTNL=.T. RUNTYP=ENERGY UNITS=ANGS D5=.T. $END
 $SYSTEM TIMLIM=10 MEMORY=2000000 $END
 $P2P P2P=.T. DLB=.T. XDLB=.T. $END
 $GUESS  GUESS=HUCKEL $END
 $SCF DIRSCF=1 $END
 $DATA
PBE0-NL/cc-pVTZ//RHF/3-21G* Silacyclobutane
CS

SILICON    14.0    -0.081722       1.055710
 S  13
  1        254900.0000         0.6251010000E-04
  2        38190.00000         0.4855530000E-03
  3        8690.000000         0.2545160000E-02
  4        2462.000000         0.1058660000E-01
  5        804.8000000         0.3687870000E-01
  6        291.3000000         0.1074790000
  7        113.6000000         0.2479360000
  8        46.75000000         0.3909270000
  9        19.82000000         0.3020260000
 10        7.708000000         0.5592360000E-01
 11        3.340000000        -0.4024060000E-02
 12        1.402000000         0.2580300000E-02
 13       0.2070000000         0.6079300000E-03
 S  13
  1        254900.0000        -0.1663700000E-04
  2        38190.00000        -0.1293100000E-03
  3        8690.000000        -0.6788280000E-03
  4        2462.000000        -0.2841170000E-02
  5        804.8000000        -0.1005510000E-01
  6        291.3000000        -0.3057740000E-01
  7        113.6000000        -0.7772560000E-01
  8        46.75000000        -0.1542360000
  9        19.82000000        -0.1803680000
 10        7.708000000         0.7982180000E-01
 11        3.340000000         0.5474410000
 12        1.402000000         0.4801190000
 13       0.2070000000        -0.1069960000E-01
 S  13
  1        254900.0000         0.4262570000E-05
  2        38190.00000         0.3310620000E-04
  3        8690.000000         0.1740150000E-03
  4        2462.000000         0.7275740000E-03
  5        804.8000000         0.2583330000E-02
  6        291.3000000         0.7863540000E-02
  7        113.6000000         0.2021550000E-01
  8        46.75000000         0.4073200000E-01
  9        19.82000000         0.4993580000E-01
 10        7.708000000        -0.2493960000E-01
 11        3.340000000        -0.1903500000
 12        1.402000000        -0.3183500000
 13       0.2070000000         0.6811800000
 S   1
  1       0.4387000000          1.000000000
 S   1
  1       0.7944000000E-01      1.000000000
 P   7
  1        481.5000000         0.1920450000E-02
  2        113.9000000         0.1535520000E-01
  3        36.23000000         0.7139910000E-01
  4        13.34000000         0.2130520000
  5        5.252000000         0.3903540000
  6        2.120000000         0.3937210000
  7       0.2528000000         0.3956300000E-02
 P   7
  1        481.5000000        -0.4052200000E-03
  2        113.9000000        -0.3358960000E-02
  3        36.23000000        -0.1528600000E-01
  4        13.34000000        -0.4892180000E-01
  5        5.252000000        -0.8550080000E-01
  6        2.120000000        -0.1121370000
  7       0.2528000000         0.5519190000
 P   1
  1       0.8561000000          1.000000000
 P   1
  1       0.7889000000E-01      1.000000000
 D   1
  1       0.1590000000          1.000000000
 D   1
  1       0.4810000000          1.000000000
 F   1
  1       0.3360000000          1.000000000

CARBON      6.0    -0.081722      -0.395331       1.217568
 S   8
  1        8236.000000         0.5310000000E-03
  2        1235.000000         0.4108000000E-02
  3        280.8000000         0.2108700000E-01
  4        79.27000000         0.8185300000E-01
  5        25.59000000         0.2348170000
  6        8.997000000         0.4344010000
  7        3.319000000         0.3461290000
  8       0.3643000000        -0.8983000000E-02
 S   8
  1        8236.000000        -0.1130000000E-03
  2        1235.000000        -0.8780000000E-03
  3        280.8000000        -0.4540000000E-02
  4        79.27000000        -0.1813300000E-01
  5        25.59000000        -0.5576000000E-01
  6        8.997000000        -0.1268950000
  7        3.319000000        -0.1703520000
  8       0.3643000000         0.5986840000
 S   1
  1       0.9059000000          1.000000000
 S   1
  1       0.1285000000          1.000000000
 P   3
  1        18.71000000         0.1403100000E-01
  2        4.133000000         0.8686600000E-01
  3        1.200000000         0.2902160000
 P   1
  1       0.3827000000          1.000000000
 P   1
  1       0.1209000000          1.000000000
 D   1
  1        1.097000000          1.000000000
 D   1
  1       0.3180000000          1.000000000
 F   1
  1       0.7610000000          1.000000000

CARBON      6.0     0.319935      -1.329102
 S   8
  1        8236.000000         0.5310000000E-03
  2        1235.000000         0.4108000000E-02
  3        280.8000000         0.2108700000E-01
  4        79.27000000         0.8185300000E-01
  5        25.59000000         0.2348170000
  6        8.997000000         0.4344010000
  7        3.319000000         0.3461290000
  8       0.3643000000        -0.8983000000E-02
 S   8
  1        8236.000000        -0.1130000000E-03
  2        1235.000000        -0.8780000000E-03
  3        280.8000000        -0.4540000000E-02
  4        79.27000000        -0.1813300000E-01
  5        25.59000000        -0.5576000000E-01
  6        8.997000000        -0.1268950000
  7        3.319000000        -0.1703520000
  8       0.3643000000         0.5986840000
 S   1
  1       0.9059000000          1.000000000
 S   1
  1       0.1285000000          1.000000000
 P   3
  1        18.71000000         0.1403100000E-01
  2        4.133000000         0.8686600000E-01
  3        1.200000000         0.2902160000
 P   1
  1       0.3827000000          1.000000000
 P   1
  1       0.1209000000          1.000000000
 D   1
  1        1.097000000          1.000000000
 D   1
  1       0.3180000000          1.000000000
 F   1
  1       0.7610000000          1.000000000

HYDROGEN    1.0    -1.222554       1.998369
 S   3
  1        33.87000000         0.6068000000E-02
  2        5.095000000         0.4530800000E-01
  3        1.159000000         0.2028220000
 S   1
  1       0.3258000000          1.000000000
 S   1
  1       0.1027000000          1.000000000
 P   1
  1        1.407000000          1.000000000
 P   1
  1       0.3880000000          1.000000000
 D   1
  1        1.057000000          1.000000000

HYDROGEN    1.0     1.168317       1.848237
 S   3
  1        33.87000000         0.6068000000E-02
  2        5.095000000         0.4530800000E-01
  3        1.159000000         0.2028220000
 S   1
  1       0.3258000000          1.000000000
 S   1
  1       0.1027000000          1.000000000
 P   1
  1        1.407000000          1.000000000
 P   1
  1       0.3880000000          1.000000000
 D   1
  1        1.057000000          1.000000000

HYDROGEN    1.0     0.604981      -0.419640       2.052727
 S   3
  1        33.87000000         0.6068000000E-02
  2        5.095000000         0.4530800000E-01
  3        1.159000000         0.2028220000
 S   1
  1       0.3258000000          1.000000000
 S   1
  1       0.1027000000          1.000000000
 P   1
  1        1.407000000          1.000000000
 P   1
  1       0.3880000000          1.000000000
 D   1
  1        1.057000000          1.000000000

HYDROGEN    1.0    -1.077445      -0.641554       1.572232
 S   3
  1        33.87000000         0.6068000000E-02
  2        5.095000000         0.4530800000E-01
  3        1.159000000         0.2028220000
 S   1
  1       0.3258000000          1.000000000
 S   1
  1       0.1027000000          1.000000000
 P   1
  1        1.407000000          1.000000000
 P   1
  1       0.3880000000          1.000000000
 D   1
  1        1.057000000          1.000000000

HYDROGEN    1.0     1.388834      -1.500162
 S   3
  1        33.87000000         0.6068000000E-02
  2        5.095000000         0.4530800000E-01
  3        1.159000000         0.2028220000
 S   1
  1       0.3258000000          1.000000000
 S   1
  1       0.1027000000          1.000000000
 P   1
  1        1.407000000          1.000000000
 P   1
  1       0.3880000000          1.000000000
 D   1
  1        1.057000000          1.000000000

HYDROGEN    1.0    -0.184517      -2.285408
 S   3
  1        33.87000000         0.6068000000E-02
  2        5.095000000         0.4530800000E-01
  3        1.159000000         0.2028220000
 S   1
  1       0.3258000000          1.000000000
 S   1
  1       0.1027000000          1.000000000
 P   1
  1        1.407000000          1.000000000
 P   1
  1       0.3880000000          1.000000000
 D   1
  1        1.057000000          1.000000000

 $END
