! EXAM32.
!
! 3-A-2 H3CN   Frozen core UMP2/6-31G*//UHF/6-31G*
!
! UMP2 geometry optimization using numerical gradients.
!
! At the initial geometry:
! The FINAL UHF energy= -94.0039683667 after 13 iters.
! E(MP2) = -94.2315757669
!
! RMS GRADIENT = 0.0033576
!
! FULLY SUBSTITUTED Z-MATRIX IS:
! N   
! C        1   1.4329216
! H        2   1.0876477    1   110.2192800
! H        2   1.0876477    1   110.2192800    3   120.0000000    0
! H        2   1.0876477    1   110.2192800    3  -120.0000000    0
!
!------------------------------------------------------------------------------
!
! After 5 steps at the optimized geometry:
!
! The FINAL UHF energy= -94.0037842407 after 4 iters.
! E(MP2) = -94.2317535465
!
! RMS GRADIENT = 0.0000086
!
! FULLY SUBSTITUTED Z-MATRIX IS:
! N   
! C        1   1.4314195
! H        2   1.0973653    1   110.2469338
! H        2   1.0973653    1   110.2469338    3   120.0000000    0
! H        2   1.0973653    1   110.2469338    3  -120.0000000    0
!
 $CONTRL SCFTYP=UHF MULT=3 RUNTYP=OPTIMIZE MPLEVL=2 COORD=ZMT NUMDER=.T. $END
 $SYSTEM TIMLIM=30 MEMORY=300000 $END
 $BASIS  GBASIS=N31 NGAUSS=6 NDFUNC=1 NPFUNC=0 $END
 $GUESS  GUESS=HUCKEL $END
 $MP2 METHOD=1 $END
 $DATA
Methylnitrene...UHF/6-31G* structure
Cnv 3

N
C  1  rCN
H  2  rCH  1  aHCN
H  2  rCH  1  aHCN  3  120.0
H  2  rCH  1  aHCN  3 -120.0

rCN=1.4329216
rCH=1.0876477
aHCN=110.21928
 $END
